data_General
_audit_creation_date                    2012-12-21
_audit_creation_method                 'by CrystalStructure 4.0'
_audit_update_record                    ?

#==============================================================================
# PROCESSING SUMMARY (IUCr Office Use Only)

_journal_date_recd_electronic           ?
_journal_date_from_coeditor             ?
_journal_date_accepted                  ?
_journal_coeditor_code                  ?

#==============================================================================
# SUBMISSION DETAILS

_publ_contact_author_name              'Taro Tsubomura'
_publ_contact_author_email             'tsubomura@st.seikei.ac.jp'
_publ_contact_author_fax               '+81-422-37-3871'
_publ_contact_author_phone             '+81-422-37-3752'
_publ_contact_letter
;
    ENTER TEXT OF LETTER
;
_publ_requested_journal                'Inorganic Chemistry Communications'
_publ_requested_category               'CHOOSE FI FM FO CI CM CO or AD'
_publ_requested_coeditor_name           ?

#==============================================================================
# TITLE AND AUTHOR LIST

_publ_section_title
;
    ENTER SECTION TITLE
;
_publ_section_title_footnote
;
    ENTER FOOTNOTE TO TITLE OF PAPER
;
loop_
_publ_author_name
_publ_author_footnote
_publ_author_address
' FIRST AUTHORS NAME '
;
  FIRST AUTHORS FOOTNOTES
;
;
  FIRST AUTHORS ADDRESS
;
_publ_section_synopsis
;
    ENTER SYNOPSIS
;

#==============================================================================
# TEXT

_publ_section_abstract
;
    ENTER ABSTRACT
;
_publ_section_comment
;
    ENTER TEXT
;
_publ_section_references
;
    ENTER OTHER REFERENCES

    Rigaku (2010). CrystalStructure. Version 4.0. 
    Rigaku Corporation, Tokyo, Japan.

    Altomare, A., Cascarano, G., Giacovazzo, C., Guagliardi, A., 
    Burla, M., Polidori, G., and Camalli, M. (1994) J. Appl. Cryst., 27, 435. 
    SIR92

    Sheldrick, G.M. (2008), Acta Cryst. A64, 112-122.

;
_publ_section_figure_captions
;
    ENTER FIGURE CAPTIONS
;
_publ_section_exptl_prep
;
    ENTER COMPOUND PREPARATION DETAILS
;
_publ_section_exptl_refinement
;
    ENTER SPECIAL DETAILS OF THE REFINEMENT
;

#==============================================================================
data__Pd(Cl)(CH2Cl)(IPr)(Pp-MeOPh3)

#==============================================================================
# CHEMICAL DATA

_chemical_formula_sum                  'C50.33 H61.67 Cl4.67 N2 O3 P Pd'
_chemical_formula_moiety               'C50.33 H61.67 Cl4.67 N2 O3 P Pd'
_chemical_formula_weight                1045.62
_chemical_melting_point                 ?

#==============================================================================
# CRYSTAL DATA
_symmetry_cell_setting                  monoclinic
_symmetry_space_group_name_H-M         'P 1 21/n 1'
_symmetry_space_group_name_Hall        '-P 2yn'
_symmetry_Int_Tables_number             14
loop_
_symmetry_equiv_pos_site_id
_symmetry_equiv_pos_as_xyz
1   '+X,+Y,+Z'
2   '1/2-X,1/2+Y,1/2-Z'
3   '-X,-Y,-Z'
4   '1/2+X,1/2-Y,1/2+Z'
#------------------------------------------------------------------------------
_cell_length_a                          14.6546(10)
_cell_length_b                          13.9029(8)
_cell_length_c                          25.3959(16)
_cell_angle_alpha                       90.0000
_cell_angle_beta                        97.8657(11)
_cell_angle_gamma                       90.0000
_cell_volume                            5125.5(6)
_cell_formula_units_Z                   4
_cell_measurement_reflns_used           7829
_cell_measurement_theta_min             3.01
_cell_measurement_theta_max             27.48
_cell_measurement_temperature           123
#------------------------------------------------------------------------------
_exptl_crystal_description              prism
_exptl_crystal_colour                   colorless
_exptl_crystal_size_max                 0.200
_exptl_crystal_size_mid                 0.200
_exptl_crystal_size_min                 0.200
_exptl_crystal_density_diffrn           1.355
_exptl_crystal_density_meas             ?
_exptl_crystal_density_method          'not measured'
_exptl_crystal_F_000                    2168.16
_exptl_absorpt_coefficient_mu           0.678
_exptl_absorpt_correction_type          none

#==============================================================================
# EXPERIMENTAL DATA

_diffrn_ambient_temperature             123
_diffrn_radiation_type                 'Mo K\a'
_diffrn_radiation_wavelength            0.71070
_diffrn_measurement_device_type        'Rigaku Saturn70'
_diffrn_measurement_method              \w
_diffrn_detector_area_resol_mean        7.314
_diffrn_reflns_number                   47072
_diffrn_reflns_av_R_equivalents         0.0563
_diffrn_reflns_theta_max                27.48
_diffrn_reflns_theta_full               27.49
_diffrn_measured_fraction_theta_max     0.979
_diffrn_measured_fraction_theta_full    0.979
_diffrn_reflns_limit_h_min             -19
_diffrn_reflns_limit_h_max              19
_diffrn_reflns_limit_k_min             -17
_diffrn_reflns_limit_k_max              17
_diffrn_reflns_limit_l_min             -32
_diffrn_reflns_limit_l_max              31
_diffrn_standards_number                0
_diffrn_standards_interval_count        .
_diffrn_standards_decay_%               ?

#==============================================================================
# REFINEMENT DATA

_refine_special_details
;
    Refinement was performed using all reflections. The weighted 
    R-factor (wR) and goodness of fit (S) are based on F^2^.
    R-factor (gt) are based on F. The threshold expression of
    F^2^ > 2.0 sigma(F^2^) is used only for calculating R-factor (gt).
;
_reflns_number_total                    11491
_reflns_number_gt                       10642
_reflns_threshold_expression            F^2^>2.0\s(F^2^)
_refine_ls_structure_factor_coef        Fsqd
_refine_ls_R_factor_gt                  0.0786
_refine_ls_wR_factor_ref                0.1486
_refine_ls_number_restraints            2
_refine_ls_hydrogen_treatment           constr
_refine_ls_number_reflns                11491
_refine_ls_number_parameters            818
_refine_ls_goodness_of_fit_ref          1.266
_refine_ls_weighting_scheme             calc
_refine_ls_weighting_details
          'w = 1/[\s^2^(Fo^2^)+(0.0313P)^2^+14.8820P] where P=(Fo^2^+2Fc^2^)/3'
_atom_sites_solution_hydrogens          geom
_atom_sites_solution_primary            direct
_atom_sites_solution_secondary          difmap
_refine_ls_shift/su_max                 0.004
_refine_diff_density_max                0.820
_refine_diff_density_min               -1.010
_refine_ls_extinction_method            none
_refine_ls_extinction_coef              ?

loop_
_atom_type_symbol
_atom_type_description
_atom_type_scat_dispersion_real
_atom_type_scat_dispersion_imag
_atom_type_scat_source
  'C' 'C'  0.0033 0.0016 
;
International Tables for Crystallography
(1992, Vol. C, Tables 4.2.6.8 and 6.1.1.4)
;
  'H' 'H'  0.0000 0.0000 
;
International Tables for Crystallography
(1992, Vol. C, Table 6.1.1.4)
;
  'Cl' 'Cl'  0.1484 0.1585 
;
International Tables for Crystallography
(1992, Vol. C, Tables 4.2.6.8 and 6.1.1.4)
;
  'N' 'N'  0.0061 0.0033 
;
International Tables for Crystallography
(1992, Vol. C, Tables 4.2.6.8 and 6.1.1.4)
;
  'O' 'O'  0.0106 0.0060 
;
International Tables for Crystallography
(1992, Vol. C, Tables 4.2.6.8 and 6.1.1.4)
;
  'P' 'P'  0.1023 0.0942 
;
International Tables for Crystallography
(1992, Vol. C, Tables 4.2.6.8 and 6.1.1.4)
;
  'Pd' 'Pd'  -0.9988 1.0072 
;
International Tables for Crystallography
(1992, Vol. C, Tables 4.2.6.8 and 6.1.1.4)
;

#==============================================================================
# ATOMIC COORDINATES AND THERMAL PARAMETERS

loop_
_atom_site_label
_atom_site_type_symbol
_atom_site_fract_x
_atom_site_fract_y
_atom_site_fract_z
_atom_site_U_iso_or_equiv
_atom_site_adp_type
_atom_site_occupancy
_atom_site_symmetry_multiplicity
_atom_site_calc_flag
_atom_site_refinement_flags
_atom_site_disorder_assembly
_atom_site_disorder_group
 Pd(1) Pd 0.49684(2) 0.57736(2) 0.191494(14) 0.02333(10) Uani 1.0 4 d . . .
 Cl(1) Cl 0.60290(7) 0.45833(8) 0.23399(5) 0.0315(3) Uani 1.0 4 d . . .
 Cl(2) Cl 0.37029(9) 0.61282(10) 0.08475(5) 0.0419(3) Uani 1.0 4 d . . .
 Cl(3) Cl 0.1159(2) 0.3692(3) 0.02669(11) 0.1370(12) Uani 1.0 4 d . . .
 Cl(4) Cl 0.13184(18) 0.2043(2) -0.04020(14) 0.1279(11) Uani 1.0 4 d . . .
 Cl(5) Cl 0.2731(6) 0.2888(7) 0.5008(3) 0.113(3) Uani 0.3330 4 d . . .
 Cl(6) Cl 0.3643(7) 0.1029(7) 0.5021(3) 0.119(3) Uani 0.3330 4 d . . .
 P(1) P 0.37283(7) 0.48326(8) 0.20847(5) 0.0234(3) Uani 1.0 4 d . . .
 O(1) O 0.0001(2) 0.6682(3) 0.16803(15) 0.0379(9) Uani 1.0 4 d . . .
 O(2) O 0.4172(3) 0.3931(4) 0.44113(14) 0.0551(11) Uani 1.0 4 d . . .
 O(3) O 0.3514(3) 0.1000(3) 0.09896(14) 0.0384(9) Uani 1.0 4 d . . .
 N(1) N 0.6466(3) 0.6968(3) 0.14470(15) 0.0243(8) Uani 1.0 4 d . . .
 N(2) N 0.6461(3) 0.7245(3) 0.22801(15) 0.0241(8) Uani 1.0 4 d . . .
 C(1) C 0.6023(3) 0.6726(3) 0.18632(18) 0.0241(9) Uani 1.0 4 d . . .
 C(2) C 0.7168(3) 0.7627(4) 0.1603(2) 0.0282(10) Uani 1.0 4 d . . .
 C(3) C 0.7165(3) 0.7807(3) 0.2122(2) 0.0276(10) Uani 1.0 4 d . . .
 C(4) C 0.6223(3) 0.6643(4) 0.09062(18) 0.0269(10) Uani 1.0 4 d . . .
 C(5) C 0.5748(4) 0.7272(4) 0.05336(19) 0.0330(11) Uani 1.0 4 d . . .
 C(6) C 0.5541(4) 0.6933(4) 0.0016(2) 0.0383(12) Uani 1.0 4 d . . .
 C(7) C 0.5781(4) 0.6026(4) -0.0123(3) 0.0404(13) Uani 1.0 4 d . . .
 C(8) C 0.6264(4) 0.5420(4) 0.0252(2) 0.0362(12) Uani 1.0 4 d . . .
 C(9) C 0.6505(3) 0.5721(4) 0.07746(18) 0.0288(10) Uani 1.0 4 d . . .
 C(10) C 0.6933(5) 0.4016(4) 0.1086(3) 0.0446(14) Uani 1.0 4 d . . .
 C(11) C 0.7103(4) 0.5093(4) 0.1171(2) 0.0326(11) Uani 1.0 4 d . . .
 C(12) C 0.8123(4) 0.5322(5) 0.1144(4) 0.0530(17) Uani 1.0 4 d . . .
 C(13) C 0.4503(5) 0.8559(5) 0.0462(3) 0.0547(17) Uani 1.0 4 d . . .
 C(14) C 0.5504(4) 0.8301(4) 0.0662(3) 0.0408(13) Uani 1.0 4 d . . .
 C(15) C 0.6136(5) 0.9011(4) 0.0429(3) 0.0445(14) Uani 1.0 4 d . . .
 C(16) C 0.6136(3) 0.7363(3) 0.27892(18) 0.0244(9) Uani 1.0 4 d . . .
 C(17) C 0.5439(3) 0.8041(3) 0.28187(18) 0.0269(10) Uani 1.0 4 d . . .
 C(18) C 0.5132(4) 0.8168(4) 0.3306(2) 0.0363(12) Uani 1.0 4 d . . .
 C(19) C 0.5506(4) 0.7641(4) 0.3748(3) 0.0409(13) Uani 1.0 4 d . . .
 C(20) C 0.6203(4) 0.6987(4) 0.3707(3) 0.0385(12) Uani 1.0 4 d . . .
 C(21) C 0.6536(3) 0.6828(4) 0.32269(19) 0.0290(10) Uani 1.0 4 d . . .
 C(22) C 0.8258(4) 0.6655(5) 0.3362(3) 0.0437(14) Uani 1.0 4 d . . .
 C(23) C 0.7339(4) 0.6139(4) 0.3201(2) 0.0327(11) Uani 1.0 4 d . . .
 C(24) C 0.7280(5) 0.5241(4) 0.3536(3) 0.0448(14) Uani 1.0 4 d . . .
 C(25) C 0.4009(4) 0.8755(5) 0.2289(3) 0.0412(13) Uani 1.0 4 d . . .
 C(26) C 0.5055(3) 0.8667(4) 0.2349(2) 0.0305(11) Uani 1.0 4 d . . .
 C(27) C 0.5505(4) 0.9651(4) 0.2382(3) 0.0416(13) Uani 1.0 4 d . . .
 C(28) C 0.4090(4) 0.6689(4) 0.14822(19) 0.0282(10) Uani 1.0 4 d . . .
 C(29) C 0.2575(3) 0.5363(3) 0.19695(18) 0.0247(9) Uani 1.0 4 d . . .
 C(30) C 0.2265(3) 0.5914(3) 0.23641(18) 0.0245(9) Uani 1.0 4 d . . .
 C(31) C 0.1407(3) 0.6367(4) 0.22866(19) 0.0271(10) Uani 1.0 4 d . . .
 C(32) C 0.0850(3) 0.6268(3) 0.18054(19) 0.0278(10) Uani 1.0 4 d . . .
 C(33) C 0.1154(3) 0.5720(4) 0.1403(2) 0.0299(10) Uani 1.0 4 d . . .
 C(34) C 0.2007(3) 0.5288(4) 0.14823(19) 0.0273(10) Uani 1.0 4 d . . .
 C(35) C -0.0335(4) 0.7257(5) 0.2078(3) 0.0441(14) Uani 1.0 4 d . . .
 C(36) C 0.3848(3) 0.4542(4) 0.27914(19) 0.0285(10) Uani 1.0 4 d . . .
 C(37) C 0.3384(4) 0.3767(4) 0.29807(19) 0.0296(10) Uani 1.0 4 d . . .
 C(38) C 0.3485(4) 0.3556(5) 0.3519(3) 0.0411(13) Uani 1.0 4 d . . .
 C(39) C 0.4054(4) 0.4109(5) 0.3875(2) 0.0465(15) Uani 1.0 4 d . . .
 C(40) C 0.4517(4) 0.4883(6) 0.3693(3) 0.0517(16) Uani 1.0 4 d . . .
 C(41) C 0.4420(4) 0.5094(5) 0.3156(3) 0.0371(12) Uani 1.0 4 d . . .
 C(42) C 0.4775(15) 0.4703(15) 0.4785(7) 0.063(6) Uani 0.3330 4 d . . .
 C(43) C 0.3735(8) 0.3031(7) 0.4598(4) 0.061(3) Uani 0.6660 4 d . . .
 C(44) C 0.3593(3) 0.3669(3) 0.17417(18) 0.0256(10) Uani 1.0 4 d . . .
 C(45) C 0.4368(3) 0.3256(4) 0.15646(18) 0.0268(10) Uani 1.0 4 d . . .
 C(46) C 0.4317(3) 0.2365(4) 0.13236(18) 0.0285(10) Uani 1.0 4 d . . .
 C(47) C 0.3483(3) 0.1871(3) 0.12358(17) 0.0262(10) Uani 1.0 4 d . . .
 C(48) C 0.2704(3) 0.2275(4) 0.14072(18) 0.0274(10) Uani 1.0 4 d . . .
 C(49) C 0.2768(3) 0.3160(4) 0.16591(18) 0.0257(10) Uani 1.0 4 d . . .
 C(50) C 0.2687(5) 0.0441(5) 0.0929(3) 0.0475(15) Uani 1.0 4 d . . .
 C(51) C 0.1905(6) 0.2894(8) -0.0018(4) 0.084(3) Uani 1.0 4 d . . .
 C(52) C 0.3424(18) 0.2116(14) 0.4703(10) 0.104(10) Uani 0.3330 4 d . . .
 H(2) H 0.7515 0.7871 0.1373 0.0183 Uiso 1.0 4 calc R . .
 H(3) H 0.7550 0.8243 0.2362 0.0211 Uiso 1.0 4 calc R . .
 H(6) H 0.5200 0.7305 -0.0248 0.0301 Uiso 1.0 4 calc R . .
 H(7) H 0.5597 0.5826 -0.0436 0.0364 Uiso 1.0 4 calc R . .
 H(8) H 0.6408 0.4797 0.0154 0.0339 Uiso 1.0 4 calc R . .
 H(10A) H 0.7301 0.3663 0.1361 0.0633 Uiso 1.0 4 calc R . .
 H(10B) H 0.7125 0.3781 0.0754 0.0503 Uiso 1.0 4 calc R . .
 H(10C) H 0.6278 0.3878 0.1073 0.0563 Uiso 1.0 4 calc R . .
 H(11) H 0.6978 0.5266 0.1530 0.0411 Uiso 1.0 4 calc R . .
 H(12A) H 0.8502 0.4971 0.1413 0.0355 Uiso 1.0 4 calc R . .
 H(12B) H 0.8284 0.5969 0.1221 0.0645 Uiso 1.0 4 calc R . .
 H(12C) H 0.8300 0.5061 0.0814 0.0684 Uiso 1.0 4 calc R . .
 H(13A) H 0.4339 0.9212 0.0585 0.0733 Uiso 1.0 4 calc R . .
 H(13B) H 0.4030 0.8102 0.0594 0.0940 Uiso 1.0 4 calc R . .
 H(13C) H 0.4293 0.8566 0.0069 0.0429 Uiso 1.0 4 calc R . .
 H(14) H 0.5574 0.8354 0.1049 0.0347 Uiso 1.0 4 calc R . .
 H(15A) H 0.5985 0.9737 0.0528 0.0625 Uiso 1.0 4 calc R . .
 H(15B) H 0.6053 0.8958 0.0033 0.0556 Uiso 1.0 4 calc R . .
 H(15C) H 0.6773 0.8873 0.0525 0.0439 Uiso 1.0 4 calc R . .
 H(18) H 0.4681 0.8639 0.3337 0.0387 Uiso 1.0 4 calc R . .
 H(19) H 0.5290 0.7746 0.4083 0.0429 Uiso 1.0 4 calc R . .
 H(20) H 0.6438 0.6661 0.4017 0.0245 Uiso 1.0 4 calc R . .
 H(22A) H 0.8744 0.6214 0.3345 0.0513 Uiso 1.0 4 calc R . .
 H(22B) H 0.8307 0.6821 0.3751 0.0353 Uiso 1.0 4 calc R . .
 H(22C) H 0.8348 0.7249 0.3137 0.0370 Uiso 1.0 4 calc R . .
 H(23) H 0.7346 0.5947 0.2855 0.0305 Uiso 1.0 4 calc R . .
 H(24A) H 0.7812 0.4826 0.3480 0.0554 Uiso 1.0 4 calc R . .
 H(24B) H 0.6741 0.4932 0.3437 0.0495 Uiso 1.0 4 calc R . .
 H(24C) H 0.7375 0.5363 0.3908 0.0770 Uiso 1.0 4 calc R . .
 H(25A) H 0.3775 0.9055 0.1951 0.06(2) Uani 1.0 4 calc R . .
 H(25B) H 0.3781 0.9124 0.2572 0.0377 Uiso 1.0 4 calc R . .
 H(25C) H 0.3732 0.8141 0.2310 0.0401 Uiso 1.0 4 calc R . .
 H(26) H 0.5198 0.8372 0.2040 0.0325 Uiso 1.0 4 calc R . .
 H(27A) H 0.5249 1.0089 0.2054 0.0669 Uiso 1.0 4 calc R . .
 H(27B) H 0.6166 0.9644 0.2396 0.0475 Uiso 1.0 4 calc R . .
 H(27C) H 0.5422 0.9948 0.2669 0.0370 Uiso 1.0 4 calc R . .
 H(28A) H 0.3570 0.6811 0.1639 0.0370 Uiso 1.0 4 calc R . .
 H(28B) H 0.4348 0.7256 0.1408 0.0285 Uiso 1.0 4 calc R . .
 H(30) H 0.2598 0.5970 0.2708 0.0310 Uiso 1.0 4 calc R . .
 H(31) H 0.1211 0.6729 0.2578 0.0291 Uiso 1.0 4 calc R . .
 H(33) H 0.0782 0.5656 0.1099 0.0273 Uiso 1.0 4 calc R . .
 H(34) H 0.2227 0.4935 0.1225 0.0301 Uiso 1.0 4 calc R . .
 H(35A) H -0.0945 0.7454 0.1961 0.0566 Uiso 1.0 4 calc R . .
 H(35B) H 0.0030 0.7802 0.2204 0.0402 Uiso 1.0 4 calc R . .
 H(35C) H -0.0395 0.6878 0.2389 0.0617 Uiso 1.0 4 calc R . .
 H(37) H 0.2964 0.3377 0.2750 0.0420 Uiso 1.0 4 calc R . .
 H(38) H 0.3191 0.3065 0.3619 0.0461 Uiso 1.0 4 calc R . .
 H(40) H 0.4852 0.5218 0.3910 0.0480 Uiso 1.0 4 calc R . .
 H(41) H 0.4690 0.5563 0.3063 0.0416 Uiso 1.0 4 calc R . .
 H(45) H 0.4941 0.3553 0.1637 0.0436 Uiso 1.0 4 calc R . .
 H(46) H 0.4857 0.2081 0.1215 0.0215 Uiso 1.0 4 calc R . .
 H(48) H 0.2177 0.1957 0.1374 0.0423 Uiso 1.0 4 calc R . .
 H(49) H 0.2240 0.3422 0.1779 0.0184 Uiso 1.0 4 calc R . .
 H(50A) H 0.2871 -0.0131 0.0772 0.0713 Uiso 1.0 4 calc R . .
 H(50B) H 0.2227 0.0755 0.0698 0.0604 Uiso 1.0 4 calc R . .
 H(50C) H 0.2502 0.0297 0.1295 0.0483 Uiso 1.0 4 calc R . .
 H(51A) H 0.2231 0.3271 -0.0310 0.1004 Uiso 1.0 4 calc R . .
 H(51B) H 0.2399 0.2621 0.0289 0.0906 Uiso 1.0 4 calc R . .
 H(52A) H 0.3142 0.1998 0.4345 0.0127 Uiso 0.3330 4 d . . .
 H(52B) H 0.4021 0.2439 0.4694 0.0127 Uiso 0.3330 4 d . . .


loop_
_atom_site_aniso_label
_atom_site_aniso_U_11
_atom_site_aniso_U_22
_atom_site_aniso_U_33
_atom_site_aniso_U_12
_atom_site_aniso_U_13
_atom_site_aniso_U_23
 Pd(1) 0.01933(16) 0.01593(17) 0.0348(2) -0.00031(12) 0.00387(13) -0.00121(14)
 Cl(1) 0.0235(5) 0.0216(6) 0.0484(7) 0.0012(4) 0.0010(5) 0.0023(5)
 Cl(2) 0.0469(7) 0.0423(8) 0.0348(7) -0.0078(6) -0.0007(6) -0.0014(6)
 Cl(3) 0.125(3) 0.195(4) 0.0991(19) -0.041(3) 0.0440(17) -0.034(2)
 Cl(4) 0.0818(16) 0.112(2) 0.187(3) -0.0242(15) 0.0050(18) 0.007(2)
 Cl(5) 0.116(6) 0.138(7) 0.079(5) -0.024(6) -0.004(4) 0.002(5)
 Cl(6) 0.144(7) 0.140(8) 0.072(5) -0.041(6) 0.008(5) 0.029(5)
 P(1) 0.0195(5) 0.0185(6) 0.0322(6) -0.0007(4) 0.0034(5) -0.0018(5)
 O(1) 0.0201(16) 0.035(2) 0.057(3) 0.0091(14) -0.0027(15) -0.0070(17)
 O(2) 0.064(3) 0.070(3) 0.030(2) 0.011(3) -0.0002(18) 0.0014(19)
 O(3) 0.042(2) 0.0248(18) 0.050(3) -0.0064(15) 0.0139(17) -0.0150(16)
 N(1) 0.0223(18) 0.0174(18) 0.034(2) -0.0007(14) 0.0063(15) -0.0001(16)
 N(2) 0.0207(17) 0.0165(18) 0.036(2) -0.0006(14) 0.0053(15) -0.0035(16)
 C(1) 0.022(2) 0.016(2) 0.034(3) 0.0036(16) 0.0025(18) -0.0018(18)
 C(2) 0.025(3) 0.020(3) 0.041(3) -0.0055(18) 0.009(2) 0.000(2)
 C(3) 0.021(2) 0.018(3) 0.044(3) -0.0031(17) 0.0050(19) -0.001(2)
 C(4) 0.023(2) 0.023(3) 0.034(3) -0.0032(18) 0.0035(18) -0.0003(19)
 C(5) 0.030(3) 0.033(3) 0.036(3) 0.001(2) 0.006(2) 0.006(3)
 C(6) 0.039(3) 0.040(3) 0.035(3) 0.003(3) -0.000(3) 0.007(3)
 C(7) 0.045(3) 0.040(4) 0.033(3) -0.007(3) -0.004(3) -0.002(3)
 C(8) 0.042(3) 0.022(3) 0.045(3) -0.005(3) 0.007(3) -0.003(3)
 C(9) 0.030(3) 0.023(3) 0.034(3) -0.0040(19) 0.0050(19) -0.004(2)
 C(10) 0.055(4) 0.026(3) 0.055(4) 0.004(3) 0.014(3) 0.004(3)
 C(11) 0.039(3) 0.021(3) 0.038(3) 0.006(2) 0.006(3) 0.005(2)
 C(12) 0.038(3) 0.040(4) 0.075(5) 0.005(3) -0.013(3) 0.011(4)
 C(13) 0.051(4) 0.047(4) 0.068(5) 0.020(3) 0.011(4) 0.017(4)
 C(14) 0.052(4) 0.032(3) 0.039(3) 0.016(3) 0.009(3) 0.006(3)
 C(15) 0.059(4) 0.029(3) 0.045(4) 0.002(3) 0.008(3) 0.006(3)
 C(16) 0.023(2) 0.017(3) 0.034(3) -0.0052(17) 0.0077(18) -0.0062(18)
 C(17) 0.021(2) 0.021(3) 0.039(3) -0.0012(17) 0.0071(18) -0.005(2)
 C(18) 0.030(3) 0.033(3) 0.047(3) 0.005(2) 0.010(3) -0.008(3)
 C(19) 0.042(3) 0.040(3) 0.043(3) 0.001(3) 0.014(3) -0.010(3)
 C(20) 0.048(3) 0.031(3) 0.036(3) 0.000(3) 0.005(3) -0.000(3)
 C(21) 0.029(3) 0.020(3) 0.037(3) -0.0007(18) 0.0039(19) -0.006(2)
 C(22) 0.039(3) 0.033(3) 0.058(4) 0.008(3) 0.000(3) -0.012(3)
 C(23) 0.035(3) 0.022(3) 0.040(3) 0.006(2) 0.003(3) -0.006(3)
 C(24) 0.050(4) 0.029(3) 0.052(4) 0.006(3) -0.005(3) 0.005(3)
 C(25) 0.032(3) 0.031(3) 0.061(4) 0.009(3) 0.009(3) -0.006(3)
 C(26) 0.030(3) 0.027(3) 0.036(3) 0.0063(19) 0.009(2) -0.002(2)
 C(27) 0.044(4) 0.025(3) 0.058(4) 0.000(3) 0.015(3) -0.000(3)
 C(28) 0.027(3) 0.020(3) 0.037(3) -0.0009(19) 0.003(2) -0.001(2)
 C(29) 0.021(2) 0.018(3) 0.035(3) -0.0025(17) 0.0042(18) 0.0024(19)
 C(30) 0.026(3) 0.021(3) 0.026(3) -0.0032(17) 0.0050(18) -0.0003(18)
 C(31) 0.025(3) 0.020(3) 0.038(3) -0.0019(17) 0.0071(19) -0.006(2)
 C(32) 0.019(2) 0.019(3) 0.045(3) -0.0016(17) 0.0034(19) 0.001(2)
 C(33) 0.026(3) 0.025(3) 0.036(3) -0.0012(19) -0.003(2) -0.004(2)
 C(34) 0.024(3) 0.028(3) 0.030(3) -0.0018(18) 0.0029(18) -0.003(2)
 C(35) 0.025(3) 0.040(4) 0.067(4) 0.008(3) 0.006(3) -0.013(3)
 C(36) 0.021(2) 0.027(3) 0.037(3) 0.0064(18) 0.0043(18) -0.004(2)
 C(37) 0.033(3) 0.025(3) 0.032(3) 0.009(2) 0.005(2) 0.002(2)
 C(38) 0.047(4) 0.036(3) 0.042(3) 0.017(3) 0.014(3) 0.008(3)
 C(39) 0.042(3) 0.068(5) 0.028(3) 0.023(3) 0.003(3) 0.001(3)
 C(40) 0.035(3) 0.074(5) 0.043(4) 0.003(3) -0.008(3) -0.018(4)
 C(41) 0.028(3) 0.043(4) 0.040(3) -0.002(3) 0.001(2) -0.007(3)
 C(42) 0.086(15) 0.067(14) 0.033(10) -0.018(11) -0.002(9) -0.015(9)
 C(43) 0.095(8) 0.048(6) 0.038(5) 0.000(6) 0.004(5) 0.016(5)
 C(44) 0.026(3) 0.020(3) 0.031(3) 0.0003(17) 0.0055(18) 0.0013(19)
 C(45) 0.023(3) 0.024(3) 0.034(3) -0.0035(18) 0.0074(18) 0.001(2)
 C(46) 0.030(3) 0.024(3) 0.035(3) 0.0037(19) 0.015(2) 0.002(2)
 C(47) 0.035(3) 0.018(3) 0.027(3) -0.0014(18) 0.0088(19) 0.0008(18)
 C(48) 0.025(3) 0.025(3) 0.033(3) -0.0066(18) 0.0070(19) -0.001(2)
 C(49) 0.027(3) 0.021(3) 0.030(3) -0.0014(18) 0.0088(19) 0.0003(19)
 C(50) 0.048(4) 0.028(3) 0.068(5) -0.010(3) 0.012(4) -0.019(3)
 C(51) 0.055(5) 0.129(8) 0.067(5) -0.017(5) 0.005(4) 0.035(5)
 C(52) 0.10(2) 0.10(3) 0.11(3) 0.008(17) 0.011(17) -0.031(19)
 H(25A) 0.0638 0.0638 0.0638 0.0000 0.0000 0.0000

#==============================================================================
_computing_data_collection             'CrystalClear (Rigaku Corp., 2000)'
_computing_cell_refinement              CrystalClear
_computing_data_reduction               CrystalClear
_computing_structure_solution          'SIR92 (Altomare, et al., 1994)'
_computing_structure_refinement        'SHELXL97 (Sheldrick, 2008)'
_computing_publication_material        'CrystalStructure 4.0 (Rigaku, 2010)'
_computing_molecular_graphics          'CrystalStructure 4.0'

#==============================================================================
# MOLECULAR GEOMETRY

_geom_special_details
;
    ENTER SPECIAL DETAILS OF THE MOLECULAR GEOMETRY
;

loop_
_geom_bond_atom_site_label_1
_geom_bond_atom_site_label_2
_geom_bond_distance
_geom_bond_publ_flag
_geom_bond_site_symmetry_1
_geom_bond_site_symmetry_2
Pd(1) Cl(1) 2.4207(11) yes . .
Pd(1) P(1) 2.3269(12) yes . .
Pd(1) C(1) 2.054(5) yes . .
Pd(1) C(28) 2.025(5) yes . .
Cl(2) C(28) 1.810(5) yes . .
Cl(3) C(51) 1.779(10) yes . .
Cl(4) C(51) 1.692(10) yes . .
Cl(5) C(43) 1.926(14) yes . .
Cl(5) C(52) 1.73(3) yes . .
Cl(6) C(52) 1.72(3) yes . .
P(1) C(29) 1.831(5) yes . .
P(1) C(36) 1.824(5) yes . .
P(1) C(44) 1.835(5) yes . .
O(1) C(32) 1.368(5) yes . .
O(1) C(35) 1.428(8) yes . .
O(2) C(39) 1.371(7) yes . .
O(2) C(42) 1.61(2) yes . .
O(2) C(43) 1.511(12) yes . .
O(3) C(47) 1.366(6) yes . .
O(3) C(50) 1.430(8) yes . .
N(1) C(1) 1.356(6) yes . .
N(1) C(2) 1.393(6) yes . .
N(1) C(4) 1.443(6) yes . .
N(2) C(1) 1.366(6) yes . .
N(2) C(3) 1.397(6) yes . .
N(2) C(16) 1.447(6) yes . .
C(2) C(3) 1.341(8) yes . .
C(4) C(5) 1.402(7) yes . .
C(4) C(9) 1.401(7) yes . .
C(5) C(6) 1.390(7) yes . .
C(5) C(14) 1.521(8) yes . .
C(6) C(7) 1.368(8) yes . .
C(7) C(8) 1.390(8) yes . .
C(8) C(9) 1.391(7) yes . .
C(9) C(11) 1.518(7) yes . .
C(10) C(11) 1.528(8) yes . .
C(11) C(12) 1.539(8) yes . .
C(13) C(14) 1.528(9) yes . .
C(14) C(15) 1.528(9) yes . .
C(16) C(17) 1.399(6) yes . .
C(16) C(21) 1.398(7) yes . .
C(17) C(18) 1.385(8) yes . .
C(17) C(26) 1.520(7) yes . .
C(18) C(19) 1.388(8) yes . .
C(19) C(20) 1.382(8) yes . .
C(20) C(21) 1.391(8) yes . .
C(21) C(23) 1.525(7) yes . .
C(22) C(23) 1.531(8) yes . .
C(23) C(24) 1.520(8) yes . .
C(25) C(26) 1.524(7) yes . .
C(26) C(27) 1.516(8) yes . .
C(29) C(30) 1.386(7) yes . .
C(29) C(34) 1.397(6) yes . .
C(30) C(31) 1.395(6) yes . .
C(31) C(32) 1.381(7) yes . .
C(32) C(33) 1.395(7) yes . .
C(33) C(34) 1.378(7) yes . .
C(36) C(37) 1.395(7) yes . .
C(36) C(41) 1.391(7) yes . .
C(37) C(38) 1.386(8) yes . .
C(38) C(39) 1.379(8) yes . .
C(39) C(40) 1.385(10) yes . .
C(40) C(41) 1.384(9) yes . .
C(42) C(42) 1.45(3) yes . 3_666
C(43) C(52) 1.39(3) yes . .
C(44) C(45) 1.401(7) yes . .
C(44) C(49) 1.392(6) yes . .
C(45) C(46) 1.379(7) yes . .
C(46) C(47) 1.393(7) yes . .
C(47) C(48) 1.395(7) yes . .
C(48) C(49) 1.384(7) yes . .
C(2) H(2) 0.893 no . .
C(3) H(3) 0.982 no . .
C(6) H(6) 0.935 no . .
C(7) H(7) 0.852 no . .
C(8) H(8) 0.934 no . .
C(10) H(10A) 0.958 no . .
C(10) H(10B) 0.981 no . .
C(10) H(10C) 0.975 no . .
C(11) H(11) 0.984 no . .
C(12) H(12A) 0.954 no . .
C(12) H(12B) 0.943 no . .
C(12) H(12C) 0.982 no . .
C(13) H(13A) 1.000 no . .
C(13) H(13B) 1.030 no . .
C(13) H(13C) 1.003 no . .
C(14) H(14) 0.976 no . .
C(15) H(15A) 1.071 no . .
C(15) H(15B) 0.999 no . .
C(15) H(15C) 0.951 no . .
C(18) H(18) 0.941 no . .
C(19) H(19) 0.959 no . .
C(20) H(20) 0.932 no . .
C(22) H(22A) 0.946 no . .
C(22) H(22B) 1.008 no . .
C(22) H(22C) 1.022 no . .
C(23) H(23) 0.920 no . .
C(24) H(24A) 0.995 no . .
C(24) H(24B) 0.905 no . .
C(24) H(24C) 0.951 no . .
C(25) H(25A) 0.975 no . .
C(25) H(25B) 0.979 no . .
C(25) H(25C) 0.949 no . .
C(26) H(26) 0.935 no . .
C(27) H(27A) 1.058 no . .
C(27) H(27B) 0.965 no . .
C(27) H(27C) 0.862 no . .
C(28) H(28A) 0.921 no . .
C(28) H(28B) 0.905 no . .
C(30) H(30) 0.943 no . .
C(31) H(31) 0.969 no . .
C(33) H(33) 0.888 no . .
C(34) H(34) 0.910 no . .
C(35) H(35A) 0.944 no . .
C(35) H(35B) 0.957 no . .
C(35) H(35C) 0.963 no . .
C(37) H(37) 0.958 no . .
C(38) H(38) 0.865 no . .
C(40) H(40) 0.828 no . .
C(41) H(41) 0.814 no . .
C(43) H(52B) 0.941(10) no . .
C(45) H(45) 0.932 no . .
C(46) H(46) 0.958 no . .
C(48) H(48) 0.884 no . .
C(49) H(49) 0.943 no . .
C(50) H(50A) 0.946 no . .
C(50) H(50B) 0.940 no . .
C(50) H(50C) 1.024 no . .
C(51) H(51A) 1.073 no . .
C(51) H(51B) 1.059 no . .
C(52) H(52A) 0.96(3) no . .
C(52) H(52B) 0.99(3) no . .

loop_
_geom_angle_atom_site_label_1
_geom_angle_atom_site_label_2
_geom_angle_atom_site_label_3
_geom_angle
_geom_angle_publ_flag
_geom_angle_site_symmetry_1
_geom_angle_site_symmetry_2
_geom_angle_site_symmetry_3
Cl(1) Pd(1) P(1) 90.18(4) yes . . .
Cl(1) Pd(1) C(1) 91.51(12) yes . . .
Cl(1) Pd(1) C(28) 173.56(15) yes . . .
P(1) Pd(1) C(1) 171.25(14) yes . . .
P(1) Pd(1) C(28) 89.95(14) yes . . .
C(1) Pd(1) C(28) 89.34(18) yes . . .
C(43) Cl(5) C(52) 44.2(9) yes . . .
Pd(1) P(1) C(29) 118.14(15) yes . . .
Pd(1) P(1) C(36) 109.52(15) yes . . .
Pd(1) P(1) C(44) 116.36(16) yes . . .
C(29) P(1) C(36) 102.1(2) yes . . .
C(29) P(1) C(44) 103.98(19) yes . . .
C(36) P(1) C(44) 105.2(2) yes . . .
C(32) O(1) C(35) 117.5(4) yes . . .
C(39) O(2) C(42) 116.6(8) yes . . .
C(39) O(2) C(43) 117.4(5) yes . . .
C(42) O(2) C(43) 126.0(8) yes . . .
C(47) O(3) C(50) 116.7(5) yes . . .
C(1) N(1) C(2) 110.8(4) yes . . .
C(1) N(1) C(4) 125.6(4) yes . . .
C(2) N(1) C(4) 123.5(4) yes . . .
C(1) N(2) C(3) 111.0(4) yes . . .
C(1) N(2) C(16) 125.1(4) yes . . .
C(3) N(2) C(16) 122.7(4) yes . . .
Pd(1) C(1) N(1) 130.9(3) yes . . .
Pd(1) C(1) N(2) 124.6(4) yes . . .
N(1) C(1) N(2) 104.4(4) yes . . .
N(1) C(2) C(3) 107.5(5) yes . . .
N(2) C(3) C(2) 106.3(4) yes . . .
N(1) C(4) C(5) 118.8(4) yes . . .
N(1) C(4) C(9) 118.1(4) yes . . .
C(5) C(4) C(9) 123.0(5) yes . . .
C(4) C(5) C(6) 116.8(5) yes . . .
C(4) C(5) C(14) 123.5(5) yes . . .
C(6) C(5) C(14) 119.6(5) yes . . .
C(5) C(6) C(7) 121.7(5) yes . . .
C(6) C(7) C(8) 120.5(5) yes . . .
C(7) C(8) C(9) 120.6(5) yes . . .
C(4) C(9) C(8) 117.3(4) yes . . .
C(4) C(9) C(11) 122.0(4) yes . . .
C(8) C(9) C(11) 120.5(5) yes . . .
C(9) C(11) C(10) 113.7(5) yes . . .
C(9) C(11) C(12) 109.1(5) yes . . .
C(10) C(11) C(12) 109.7(5) yes . . .
C(5) C(14) C(13) 113.2(5) yes . . .
C(5) C(14) C(15) 110.6(5) yes . . .
C(13) C(14) C(15) 109.0(5) yes . . .
N(2) C(16) C(17) 117.1(4) yes . . .
N(2) C(16) C(21) 119.8(4) yes . . .
C(17) C(16) C(21) 123.1(5) yes . . .
C(16) C(17) C(18) 117.6(4) yes . . .
C(16) C(17) C(26) 122.6(5) yes . . .
C(18) C(17) C(26) 119.8(4) yes . . .
C(17) C(18) C(19) 120.9(5) yes . . .
C(18) C(19) C(20) 120.1(6) yes . . .
C(19) C(20) C(21) 121.5(5) yes . . .
C(16) C(21) C(20) 116.9(5) yes . . .
C(16) C(21) C(23) 122.8(5) yes . . .
C(20) C(21) C(23) 120.2(5) yes . . .
C(21) C(23) C(22) 110.4(4) yes . . .
C(21) C(23) C(24) 112.9(5) yes . . .
C(22) C(23) C(24) 110.6(5) yes . . .
C(17) C(26) C(25) 112.6(5) yes . . .
C(17) C(26) C(27) 111.2(4) yes . . .
C(25) C(26) C(27) 110.9(5) yes . . .
Pd(1) C(28) Cl(2) 108.1(3) yes . . .
P(1) C(29) C(30) 119.6(4) yes . . .
P(1) C(29) C(34) 122.4(4) yes . . .
C(30) C(29) C(34) 117.9(4) yes . . .
C(29) C(30) C(31) 121.7(4) yes . . .
C(30) C(31) C(32) 119.5(5) yes . . .
O(1) C(32) C(31) 124.9(5) yes . . .
O(1) C(32) C(33) 115.5(4) yes . . .
C(31) C(32) C(33) 119.6(4) yes . . .
C(32) C(33) C(34) 120.4(5) yes . . .
C(29) C(34) C(33) 121.0(5) yes . . .
P(1) C(36) C(37) 121.6(4) yes . . .
P(1) C(36) C(41) 120.1(4) yes . . .
C(37) C(36) C(41) 118.3(5) yes . . .
C(36) C(37) C(38) 120.8(5) yes . . .
C(37) C(38) C(39) 120.2(6) yes . . .
O(2) C(39) C(38) 122.3(6) yes . . .
O(2) C(39) C(40) 118.1(5) yes . . .
C(38) C(39) C(40) 119.6(5) yes . . .
C(39) C(40) C(41) 120.3(6) yes . . .
C(36) C(41) C(40) 120.7(6) yes . . .
O(2) C(42) C(42) 167.1(18) yes . . 3_666
Cl(5) C(43) O(2) 130.0(7) yes . . .
Cl(5) C(43) C(52) 60.5(12) yes . . .
O(2) C(43) C(52) 169.3(14) yes . . .
P(1) C(44) C(45) 118.3(4) yes . . .
P(1) C(44) C(49) 123.7(4) yes . . .
C(45) C(44) C(49) 118.0(4) yes . . .
C(44) C(45) C(46) 120.9(4) yes . . .
C(45) C(46) C(47) 120.5(5) yes . . .
O(3) C(47) C(46) 115.3(4) yes . . .
O(3) C(47) C(48) 125.4(4) yes . . .
C(46) C(47) C(48) 119.3(4) yes . . .
C(47) C(48) C(49) 119.7(4) yes . . .
C(44) C(49) C(48) 121.6(5) yes . . .
Cl(3) C(51) Cl(4) 112.3(5) yes . . .
Cl(5) C(52) Cl(6) 114.6(15) yes . . .
Cl(5) C(52) C(43) 75.3(11) yes . . .
Cl(6) C(52) C(43) 148.0(19) yes . . .
N(1) C(2) H(2) 121.912 no . . .
C(3) C(2) H(2) 130.541 no . . .
N(2) C(3) H(3) 123.383 no . . .
C(2) C(3) H(3) 130.339 no . . .
C(5) C(6) H(6) 121.060 no . . .
C(7) C(6) H(6) 117.166 no . . .
C(6) C(7) H(7) 118.821 no . . .
C(8) C(7) H(7) 120.515 no . . .
C(7) C(8) H(8) 119.614 no . . .
C(9) C(8) H(8) 119.723 no . . .
C(11) C(10) H(10A) 109.526 no . . .
C(11) C(10) H(10B) 112.883 no . . .
C(11) C(10) H(10C) 109.771 no . . .
H(10A) C(10) H(10B) 104.907 no . . .
H(10A) C(10) H(10C) 112.169 no . . .
H(10B) C(10) H(10C) 107.536 no . . .
C(9) C(11) H(11) 108.016 no . . .
C(10) C(11) H(11) 108.931 no . . .
C(12) C(11) H(11) 107.196 no . . .
C(11) C(12) H(12A) 109.630 no . . .
C(11) C(12) H(12B) 113.915 no . . .
C(11) C(12) H(12C) 109.521 no . . .
H(12A) C(12) H(12B) 103.604 no . . .
H(12A) C(12) H(12C) 103.034 no . . .
H(12B) C(12) H(12C) 116.229 no . . .
C(14) C(13) H(13A) 111.792 no . . .
C(14) C(13) H(13B) 113.957 no . . .
C(14) C(13) H(13C) 118.839 no . . .
H(13A) C(13) H(13B) 104.859 no . . .
H(13A) C(13) H(13C) 104.336 no . . .
H(13B) C(13) H(13C) 101.571 no . . .
C(5) C(14) H(14) 106.964 no . . .
C(13) C(14) H(14) 106.291 no . . .
C(15) C(14) H(14) 110.813 no . . .
C(14) C(15) H(15A) 111.141 no . . .
C(14) C(15) H(15B) 110.184 no . . .
C(14) C(15) H(15C) 113.253 no . . .
H(15A) C(15) H(15B) 107.872 no . . .
H(15A) C(15) H(15C) 110.916 no . . .
H(15B) C(15) H(15C) 103.061 no . . .
C(17) C(18) H(18) 118.824 no . . .
C(19) C(18) H(18) 120.252 no . . .
C(18) C(19) H(19) 119.617 no . . .
C(20) C(19) H(19) 120.275 no . . .
C(19) C(20) H(20) 116.580 no . . .
C(21) C(20) H(20) 121.941 no . . .
C(23) C(22) H(22A) 108.939 no . . .
C(23) C(22) H(22B) 108.090 no . . .
C(23) C(22) H(22C) 113.995 no . . .
H(22A) C(22) H(22B) 103.847 no . . .
H(22A) C(22) H(22C) 110.063 no . . .
H(22B) C(22) H(22C) 111.386 no . . .
C(21) C(23) H(23) 109.460 no . . .
C(22) C(23) H(23) 105.344 no . . .
C(24) C(23) H(23) 107.802 no . . .
C(23) C(24) H(24A) 106.903 no . . .
C(23) C(24) H(24B) 110.370 no . . .
C(23) C(24) H(24C) 113.420 no . . .
H(24A) C(24) H(24B) 110.886 no . . .
H(24A) C(24) H(24C) 103.564 no . . .
H(24B) C(24) H(24C) 111.411 no . . .
C(26) C(25) H(25A) 110.599 no . . .
C(26) C(25) H(25B) 114.127 no . . .
C(26) C(25) H(25C) 110.772 no . . .
H(25A) C(25) H(25B) 107.911 no . . .
H(25A) C(25) H(25C) 109.408 no . . .
H(25B) C(25) H(25C) 103.736 no . . .
C(17) C(26) H(26) 107.883 no . . .
C(25) C(26) H(26) 106.735 no . . .
C(27) C(26) H(26) 107.159 no . . .
C(26) C(27) H(27A) 111.832 no . . .
C(26) C(27) H(27B) 114.870 no . . .
C(26) C(27) H(27C) 111.619 no . . .
H(27A) C(27) H(27B) 106.246 no . . .
H(27A) C(27) H(27C) 108.350 no . . .
H(27B) C(27) H(27C) 103.361 no . . .
Pd(1) C(28) H(28A) 112.526 no . . .
Pd(1) C(28) H(28B) 114.052 no . . .
Cl(2) C(28) H(28A) 106.669 no . . .
Cl(2) C(28) H(28B) 106.133 no . . .
H(28A) C(28) H(28B) 108.886 no . . .
C(29) C(30) H(30) 122.384 no . . .
C(31) C(30) H(30) 115.780 no . . .
C(30) C(31) H(31) 118.810 no . . .
C(32) C(31) H(31) 121.705 no . . .
C(32) C(33) H(33) 118.255 no . . .
C(34) C(33) H(33) 121.354 no . . .
C(29) C(34) H(34) 116.716 no . . .
C(33) C(34) H(34) 122.293 no . . .
O(1) C(35) H(35A) 110.060 no . . .
O(1) C(35) H(35B) 116.670 no . . .
O(1) C(35) H(35C) 110.684 no . . .
H(35A) C(35) H(35B) 109.714 no . . .
H(35A) C(35) H(35C) 103.203 no . . .
H(35B) C(35) H(35C) 105.590 no . . .
C(36) C(37) H(37) 121.923 no . . .
C(38) C(37) H(37) 117.215 no . . .
C(37) C(38) H(38) 117.899 no . . .
C(39) C(38) H(38) 121.882 no . . .
C(39) C(40) H(40) 119.208 no . . .
C(41) C(40) H(40) 120.477 no . . .
C(36) C(41) H(41) 121.416 no . . .
C(40) C(41) H(41) 117.809 no . . .
Cl(5) C(43) H(52B) 96.6(8) no . . .
O(2) C(43) H(52B) 127.9(11) no . . .
C(52) C(43) H(52B) 45.1(12) no . . .
C(44) C(45) H(45) 120.237 no . . .
C(46) C(45) H(45) 118.610 no . . .
C(45) C(46) H(46) 120.068 no . . .
C(47) C(46) H(46) 119.464 no . . .
C(47) C(48) H(48) 120.724 no . . .
C(49) C(48) H(48) 119.466 no . . .
C(44) C(49) H(49) 119.320 no . . .
C(48) C(49) H(49) 119.048 no . . .
O(3) C(50) H(50A) 102.482 no . . .
O(3) C(50) H(50B) 109.860 no . . .
O(3) C(50) H(50C) 109.651 no . . .
H(50A) C(50) H(50B) 110.306 no . . .
H(50A) C(50) H(50C) 110.248 no . . .
H(50B) C(50) H(50C) 113.709 no . . .
Cl(3) C(51) H(51A) 109.439 no . . .
Cl(3) C(51) H(51B) 108.695 no . . .
Cl(4) C(51) H(51A) 100.461 no . . .
Cl(4) C(51) H(51B) 114.581 no . . .
H(51A) C(51) H(51B) 111.128 no . . .
Cl(5) C(52) H(52A) 109.0(19) no . . .
Cl(5) C(52) H(52B) 107.7(16) no . . .
Cl(6) C(52) H(52A) 108.9(16) no . . .
Cl(6) C(52) H(52B) 107.5(18) no . . .
C(43) C(52) H(52A) 94.9(18) no . . .
C(43) C(52) H(52B) 42.6(10) no . . .
H(52A) C(52) H(52B) 109(3) no . . .
C(43) H(52B) C(52) 92.3(14) no . . .

loop_
_geom_torsion_atom_site_label_1
_geom_torsion_atom_site_label_2
_geom_torsion_atom_site_label_3
_geom_torsion_atom_site_label_4
_geom_torsion
_geom_torsion_publ_flag
_geom_torsion_site_symmetry_1
_geom_torsion_site_symmetry_2
_geom_torsion_site_symmetry_3
_geom_torsion_site_symmetry_4
Cl(1) Pd(1) P(1) C(29) 169.67(7) no . . . .
Cl(1) Pd(1) P(1) C(36) 53.52(6) no . . . .
Cl(1) Pd(1) P(1) C(44) -65.51(7) no . . . .
Cl(1) Pd(1) C(1) N(1) 101.7(4) no . . . .
Cl(1) Pd(1) C(1) N(2) -75.6(3) no . . . .
P(1) Pd(1) C(28) Cl(2) -75.7(3) no . . . .
C(28) Pd(1) P(1) C(29) -16.77(15) no . . . .
C(28) Pd(1) P(1) C(36) -132.92(15) no . . . .
C(28) Pd(1) P(1) C(44) 108.04(15) no . . . .
C(1) Pd(1) C(28) Cl(2) 113.0(3) no . . . .
C(28) Pd(1) C(1) N(1) -71.9(4) no . . . .
C(28) Pd(1) C(1) N(2) 110.8(4) no . . . .
C(43) Cl(5) C(52) Cl(6) 148(2) no . . . .
C(43) Cl(5) C(52) C(43) 0.0(4) no . . . .
C(52) Cl(5) C(43) O(2) 177.2(15) no . . . .
C(52) Cl(5) C(43) C(52) 0.0(11) no . . . .
Pd(1) P(1) C(29) C(30) -84.9(4) no . . . .
Pd(1) P(1) C(29) C(34) 90.8(3) no . . . .
Pd(1) P(1) C(36) C(37) -159.8(3) no . . . .
Pd(1) P(1) C(36) C(41) 19.6(4) no . . . .
Pd(1) P(1) C(44) C(45) 22.7(4) no . . . .
Pd(1) P(1) C(44) C(49) -159.0(3) no . . . .
C(29) P(1) C(36) C(37) 74.2(4) no . . . .
C(29) P(1) C(36) C(41) -106.4(4) no . . . .
C(36) P(1) C(29) C(30) 35.2(4) no . . . .
C(36) P(1) C(29) C(34) -149.1(3) no . . . .
C(29) P(1) C(44) C(45) 154.5(3) no . . . .
C(29) P(1) C(44) C(49) -27.3(4) no . . . .
C(44) P(1) C(29) C(30) 144.4(3) no . . . .
C(44) P(1) C(29) C(34) -39.9(4) no . . . .
C(36) P(1) C(44) C(45) -98.7(4) no . . . .
C(36) P(1) C(44) C(49) 79.6(4) no . . . .
C(44) P(1) C(36) C(37) -34.1(4) no . . . .
C(44) P(1) C(36) C(41) 145.3(3) no . . . .
C(35) O(1) C(32) C(31) -0.2(7) no . . . .
C(35) O(1) C(32) C(33) -179.5(4) no . . . .
C(42) O(2) C(39) C(38) -173.8(10) no . . . .
C(42) O(2) C(39) C(40) 5.1(11) no . . . .
C(39) O(2) C(43) Cl(5) -112.3(7) no . . . .
C(43) O(2) C(39) C(38) 6.7(9) no . . . .
C(43) O(2) C(39) C(40) -174.4(6) no . . . .
C(42) O(2) C(43) Cl(5) 68.3(14) no . . . .
C(50) O(3) C(47) C(46) 175.4(4) no . . . .
C(50) O(3) C(47) C(48) -3.4(7) no . . . .
C(1) N(1) C(2) C(3) -0.3(5) no . . . .
C(2) N(1) C(1) Pd(1) -177.7(4) no . . . .
C(2) N(1) C(1) N(2) -0.0(5) no . . . .
C(1) N(1) C(4) C(5) 102.5(5) no . . . .
C(1) N(1) C(4) C(9) -79.8(5) no . . . .
C(4) N(1) C(1) Pd(1) 5.7(7) no . . . .
C(4) N(1) C(1) N(2) -176.6(4) no . . . .
C(2) N(1) C(4) C(5) -73.6(5) no . . . .
C(2) N(1) C(4) C(9) 104.1(5) no . . . .
C(4) N(1) C(2) C(3) 176.3(4) no . . . .
C(1) N(2) C(3) C(2) -0.5(5) no . . . .
C(3) N(2) C(1) Pd(1) 178.3(3) no . . . .
C(3) N(2) C(1) N(1) 0.3(5) no . . . .
C(1) N(2) C(16) C(17) -79.4(5) no . . . .
C(1) N(2) C(16) C(21) 102.3(5) no . . . .
C(16) N(2) C(1) Pd(1) -13.7(6) no . . . .
C(16) N(2) C(1) N(1) 168.4(4) no . . . .
C(3) N(2) C(16) C(17) 87.4(5) no . . . .
C(3) N(2) C(16) C(21) -91.0(5) no . . . .
C(16) N(2) C(3) C(2) -169.0(4) no . . . .
N(1) C(2) C(3) N(2) 0.5(5) no . . . .
N(1) C(4) C(5) C(6) 179.0(4) no . . . .
N(1) C(4) C(5) C(14) 2.5(7) no . . . .
N(1) C(4) C(9) C(8) 180.0(4) no . . . .
N(1) C(4) C(9) C(11) -4.1(7) no . . . .
C(5) C(4) C(9) C(8) -2.4(7) no . . . .
C(5) C(4) C(9) C(11) 173.5(4) no . . . .
C(9) C(4) C(5) C(6) 1.4(7) no . . . .
C(9) C(4) C(5) C(14) -175.2(4) no . . . .
C(4) C(5) C(6) C(7) 0.6(8) no . . . .
C(4) C(5) C(14) C(13) -132.6(5) no . . . .
C(4) C(5) C(14) C(15) 104.8(5) no . . . .
C(6) C(5) C(14) C(13) 50.9(7) no . . . .
C(6) C(5) C(14) C(15) -71.7(6) no . . . .
C(14) C(5) C(6) C(7) 177.3(5) no . . . .
C(5) C(6) C(7) C(8) -1.6(9) no . . . .
C(6) C(7) C(8) C(9) 0.6(9) no . . . .
C(7) C(8) C(9) C(4) 1.3(8) no . . . .
C(7) C(8) C(9) C(11) -174.6(5) no . . . .
C(4) C(9) C(11) C(10) 149.6(4) no . . . .
C(4) C(9) C(11) C(12) -87.6(6) no . . . .
C(8) C(9) C(11) C(10) -34.6(7) no . . . .
C(8) C(9) C(11) C(12) 88.2(5) no . . . .
N(2) C(16) C(17) C(18) -179.2(3) no . . . .
N(2) C(16) C(17) C(26) -2.6(6) no . . . .
N(2) C(16) C(21) C(20) 179.0(4) no . . . .
N(2) C(16) C(21) C(23) 2.4(6) no . . . .
C(17) C(16) C(21) C(20) 0.7(6) no . . . .
C(17) C(16) C(21) C(23) -175.8(4) no . . . .
C(21) C(16) C(17) C(18) -0.9(6) no . . . .
C(21) C(16) C(17) C(26) 175.7(4) no . . . .
C(16) C(17) C(18) C(19) 0.1(7) no . . . .
C(16) C(17) C(26) C(25) 137.4(4) no . . . .
C(16) C(17) C(26) C(27) -97.3(5) no . . . .
C(18) C(17) C(26) C(25) -46.0(6) no . . . .
C(18) C(17) C(26) C(27) 79.2(5) no . . . .
C(26) C(17) C(18) C(19) -176.6(4) no . . . .
C(17) C(18) C(19) C(20) 0.8(8) no . . . .
C(18) C(19) C(20) C(21) -1.0(8) no . . . .
C(19) C(20) C(21) C(16) 0.2(7) no . . . .
C(19) C(20) C(21) C(23) 176.9(5) no . . . .
C(16) C(21) C(23) C(22) 92.2(5) no . . . .
C(16) C(21) C(23) C(24) -143.4(4) no . . . .
C(20) C(21) C(23) C(22) -84.2(6) no . . . .
C(20) C(21) C(23) C(24) 40.1(6) no . . . .
P(1) C(29) C(30) C(31) 177.1(3) no . . . .
P(1) C(29) C(34) C(33) -178.0(3) no . . . .
C(30) C(29) C(34) C(33) -2.2(7) no . . . .
C(34) C(29) C(30) C(31) 1.2(7) no . . . .
C(29) C(30) C(31) C(32) -0.0(7) no . . . .
C(30) C(31) C(32) O(1) -179.5(4) no . . . .
C(30) C(31) C(32) C(33) -0.3(7) no . . . .
O(1) C(32) C(33) C(34) 178.6(4) no . . . .
C(31) C(32) C(33) C(34) -0.7(7) no . . . .
C(32) C(33) C(34) C(29) 2.0(7) no . . . .
P(1) C(36) C(37) C(38) 179.9(3) no . . . .
P(1) C(36) C(41) C(40) 180.0(4) no . . . .
C(37) C(36) C(41) C(40) -0.6(7) no . . . .
C(41) C(36) C(37) C(38) 0.4(7) no . . . .
C(36) C(37) C(38) C(39) -0.5(8) no . . . .
C(37) C(38) C(39) O(2) 179.6(5) no . . . .
C(37) C(38) C(39) C(40) 0.7(9) no . . . .
O(2) C(39) C(40) C(41) -179.9(5) no . . . .
C(38) C(39) C(40) C(41) -0.9(9) no . . . .
C(39) C(40) C(41) C(36) 0.8(9) no . . . .
Cl(5) C(43) C(52) Cl(5) 0.0(3) no . . . .
Cl(5) C(43) C(52) Cl(6) -113(4) no . . . .
P(1) C(44) C(45) C(46) 177.4(3) no . . . .
P(1) C(44) C(49) C(48) -178.7(3) no . . . .
C(45) C(44) C(49) C(48) -0.4(7) no . . . .
C(49) C(44) C(45) C(46) -1.0(7) no . . . .
C(44) C(45) C(46) C(47) 2.1(7) no . . . .
C(45) C(46) C(47) O(3) 179.4(4) no . . . .
C(45) C(46) C(47) C(48) -1.7(7) no . . . .
O(3) C(47) C(48) C(49) 179.1(4) no . . . .
C(46) C(47) C(48) C(49) 0.3(7) no . . . .
C(47) C(48) C(49) C(44) 0.8(7) no . . . .

loop_
_geom_contact_atom_site_label_1
_geom_contact_atom_site_label_2
_geom_contact_distance
_geom_contact_publ_flag
_geom_contact_site_symmetry_1
_geom_contact_site_symmetry_2
Pd(1) C(4) 3.563(5) no . .
Pd(1) C(16) 3.421(5) no . .
Pd(1) C(41) 3.488(6) no . .
Cl(1) C(23) 3.464(5) no . .
Cl(1) C(24) 3.450(7) no . .
Cl(1) C(36) 3.540(5) no . .
Cl(1) C(41) 3.420(6) no . .
Cl(1) C(45) 3.449(5) no . .
Cl(2) C(5) 3.578(5) no . .
Cl(2) C(34) 3.352(5) no . .
Cl(5) C(20) 3.425(9) no . 3_666
N(1) C(11) 2.888(6) no . .
N(1) C(12) 3.497(8) no . .
N(1) C(14) 2.937(7) no . .
N(1) C(16) 3.550(6) no . .
N(1) C(28) 3.518(6) no . .
N(2) C(4) 3.558(6) no . .
N(2) C(23) 2.944(6) no . .
N(2) C(26) 2.878(6) no . .
C(1) C(5) 3.430(7) no . .
C(1) C(9) 3.260(7) no . .
C(1) C(11) 3.393(7) no . .
C(1) C(17) 3.245(7) no . .
C(1) C(21) 3.445(7) no . .
C(1) C(26) 3.361(7) no . .
C(2) C(5) 3.224(7) no . .
C(2) C(9) 3.439(7) no . .
C(2) C(14) 3.307(7) no . .
C(2) C(16) 3.569(7) no . .
C(3) C(4) 3.589(7) no . .
C(3) C(17) 3.296(7) no . .
C(3) C(21) 3.360(7) no . .
C(3) C(23) 3.574(7) no . .
C(3) C(26) 3.437(7) no . .
C(4) C(7) 2.742(7) no . .
C(4) C(12) 3.320(8) no . .
C(4) C(15) 3.505(8) no . .
C(5) C(8) 2.804(8) no . .
C(6) C(9) 2.793(7) no . .
C(6) C(13) 3.030(10) no . .
C(6) C(15) 3.155(8) no . .
C(8) C(10) 2.948(8) no . .
C(8) C(12) 3.300(8) no . .
C(16) C(19) 2.746(8) no . .
C(16) C(22) 3.392(7) no . .
C(16) C(27) 3.432(7) no . .
C(17) C(20) 2.792(7) no . .
C(18) C(21) 2.804(7) no . .
C(18) C(25) 2.980(8) no . .
C(18) C(27) 3.226(9) no . .
C(20) C(22) 3.282(9) no . .
C(20) C(24) 2.959(9) no . .
C(25) C(28) 3.539(8) no . .
C(28) C(29) 3.258(7) no . .
C(29) C(32) 2.803(6) no . .
C(29) C(37) 3.477(7) no . .
C(29) C(49) 3.185(7) no . .
C(30) C(33) 2.755(7) no . .
C(30) C(36) 3.084(6) no . .
C(31) C(34) 2.773(7) no . .
C(31) C(35) 2.821(7) no . .
C(34) C(44) 3.237(7) no . .
C(34) C(49) 3.172(7) no . .
C(36) C(39) 2.794(7) no . .
C(37) C(40) 2.760(8) no . .
C(37) C(44) 3.206(7) no . .
C(37) C(49) 3.459(7) no . .
C(38) C(41) 2.765(9) no . .
C(38) C(43) 2.811(11) no . .
C(40) C(42) 2.757(19) no . .
C(44) C(47) 2.805(7) no . .
C(45) C(48) 2.775(7) no . .
C(46) C(49) 2.762(7) no . .
C(48) C(50) 2.822(8) no . .
Cl(2) C(8) 3.530(6) no . 3_665
Cl(2) C(52) 3.52(3) no . 2_555
Cl(3) Cl(6) 3.352(10) no . 2_555
Cl(4) O(2) 3.398(5) no . 4_454
Cl(4) C(42) 3.39(3) no . 4_454
Cl(5) C(13) 3.456(11) no . 2_545
Cl(6) Cl(3) 3.352(10) no . 2_545
Cl(6) C(12) 3.584(12) no . 4_455
O(1) C(12) 3.461(7) no . 1_455
O(1) C(38) 3.503(7) no . 2_555
O(2) Cl(4) 3.398(5) no . 4_555
O(2) C(50) 3.455(8) no . 2_555
C(6) C(46) 3.572(8) no . 3_665
C(7) C(8) 3.586(8) no . 3_665
C(8) Cl(2) 3.530(6) no . 3_665
C(8) C(7) 3.586(8) no . 3_665
C(10) C(22) 3.595(9) no . 2_645
C(12) Cl(6) 3.584(12) no . 4_554
C(12) O(1) 3.461(7) no . 1_655
C(13) Cl(5) 3.456(11) no . 2_555
C(22) C(10) 3.595(9) no . 2_655
C(25) C(37) 3.480(7) no . 2_555
C(31) C(37) 3.427(7) no . 2_555
C(32) C(38) 3.459(8) no . 2_555
C(33) C(52) 3.54(3) no . 2_555
C(35) C(37) 3.567(8) no . 2_555
C(37) C(25) 3.480(7) no . 2_545
C(37) C(31) 3.427(7) no . 2_545
C(37) C(35) 3.567(8) no . 2_545
C(38) O(1) 3.503(7) no . 2_545
C(38) C(32) 3.459(8) no . 2_545
C(38) C(50) 3.528(9) no . 2_555
C(39) C(50) 3.246(9) no . 2_555
C(40) C(50) 3.579(10) no . 2_555
C(42) Cl(4) 3.39(3) no . 4_555
C(46) C(6) 3.572(8) no . 3_665
C(50) O(2) 3.455(8) no . 2_545
C(50) C(38) 3.528(9) no . 2_545
C(50) C(39) 3.246(9) no . 2_545
C(50) C(40) 3.579(10) no . 2_545
C(52) Cl(2) 3.52(3) no . 2_545
C(52) C(33) 3.54(3) no . 2_545
Pd(1) H(11) 3.3033 no . .
Pd(1) H(41) 3.0136 no . .
Pd(1) H(45) 3.1656 no . .
Cl(1) H(10A) 3.5441 no . .
Cl(1) H(10C) 3.4314 no . .
Cl(1) H(11) 2.8014 no . .
Cl(1) H(23) 2.8887 no . .
Cl(1) H(24B) 2.8789 no . .
Cl(1) H(41) 3.1725 no . .
Cl(1) H(45) 2.6458 no . .
Cl(2) H(13B) 2.8737 no . .
Cl(2) H(34) 2.9863 no . .
Cl(5) H(19) 3.5618 no . 3_666
Cl(5) H(20) 2.6810 no . 3_666
Cl(6) H(19) 3.0900 no . 3_666
P(1) H(28A) 2.9713 no . .
P(1) H(30) 2.9098 no . .
P(1) H(34) 2.8825 no . .
P(1) H(37) 2.9525 no . .
P(1) H(41) 2.8693 no . .
P(1) H(45) 2.8587 no . .
P(1) H(49) 2.9574 no . .
O(1) H(31) 2.6900 no . .
O(1) H(33) 2.4467 no . .
O(2) H(38) 2.6020 no . .
O(2) H(40) 2.4830 no . .
O(2) H(52A) 3.076(5) no . .
O(3) H(46) 2.4799 no . .
O(3) H(48) 2.6618 no . .
N(1) H(3) 3.1701 no . .
N(1) H(11) 2.4821 no . .
N(1) H(12B) 3.1257 no . .
N(1) H(14) 2.4661 no . .
N(1) H(26) 3.2090 no . .
N(1) H(28B) 3.1182 no . .
N(2) H(2) 3.0707 no . .
N(2) H(11) 3.4875 no . .
N(2) H(14) 3.5684 no . .
N(2) H(22C) 3.2765 no . .
N(2) H(23) 2.5603 no . .
N(2) H(26) 2.4387 no . .
N(2) H(27B) 3.3812 no . .
N(2) H(28B) 3.5525 no . .
C(1) H(2) 3.0999 no . .
C(1) H(3) 3.2059 no . .
C(1) H(11) 2.6673 no . .
C(1) H(14) 3.0758 no . .
C(1) H(23) 3.1535 no . .
C(1) H(26) 2.6553 no . .
C(1) H(28A) 3.5640 no . .
C(1) H(28B) 2.6706 no . .
C(2) H(11) 3.2963 no . .
C(2) H(12B) 3.0594 no . .
C(2) H(14) 2.7488 no . .
C(2) H(15C) 3.2237 no . .
C(2) H(26) 3.3933 no . .
C(3) H(14) 3.4202 no . .
C(3) H(22C) 3.0057 no . .
C(3) H(23) 3.1772 no . .
C(3) H(26) 2.9681 no . .
C(3) H(27B) 3.0706 no . .
C(4) H(2) 2.6998 no . .
C(4) H(6) 3.2378 no . .
C(4) H(7) 3.5915 no . .
C(4) H(8) 3.2334 no . .
C(4) H(11) 2.6300 no . .
C(4) H(12B) 3.1584 no . .
C(4) H(14) 2.6053 no . .
C(4) H(15C) 3.3780 no . .
C(4) H(28B) 3.2956 no . .
C(5) H(2) 3.2292 no . .
C(5) H(7) 3.1634 no . .
C(5) H(13A) 3.4103 no . .
C(5) H(13B) 2.7932 no . .
C(5) H(13C) 2.9126 no . .
C(5) H(15A) 3.4443 no . .
C(5) H(15B) 2.7321 no . .
C(5) H(15C) 2.6867 no . .
C(5) H(28B) 3.2233 no . .
C(6) H(8) 3.2310 no . .
C(6) H(13B) 3.2543 no . .
C(6) H(13C) 2.9298 no . .
C(6) H(14) 3.2785 no . .
C(6) H(15B) 2.9119 no . .
C(6) H(15C) 3.4013 no . .
C(8) H(6) 3.2201 no . .
C(8) H(10B) 2.8236 no . .
C(8) H(10C) 2.9883 no . .
C(8) H(11) 3.2791 no . .
C(8) H(12C) 3.1663 no . .
C(9) H(2) 3.5807 no . .
C(9) H(7) 3.1823 no . .
C(9) H(10A) 3.3602 no . .
C(9) H(10B) 2.8496 no . .
C(9) H(10C) 2.7047 no . .
C(9) H(12A) 3.3141 no . .
C(9) H(12B) 2.7194 no . .
C(9) H(12C) 2.7756 no . .
C(10) H(8) 2.6212 no . .
C(10) H(12A) 2.6855 no . .
C(10) H(12B) 3.3497 no . .
C(10) H(12C) 2.6425 no . .
C(10) H(45) 3.4653 no . .
C(11) H(8) 2.6759 no . .
C(12) H(8) 3.3828 no . .
C(12) H(10A) 2.6939 no . .
C(12) H(10B) 2.7053 no . .
C(12) H(10C) 3.3518 no . .
C(13) H(6) 2.7998 no . .
C(13) H(15A) 2.7060 no . .
C(13) H(15B) 2.7076 no . .
C(13) H(15C) 3.3362 no . .
C(13) H(28B) 3.0413 no . .
C(14) H(2) 3.2927 no . .
C(14) H(6) 2.6784 no . .
C(14) H(26) 3.5888 no . .
C(14) H(28B) 3.0735 no . .
C(15) H(2) 3.3188 no . .
C(15) H(6) 3.1328 no . .
C(15) H(13A) 2.7320 no . .
C(15) H(13B) 3.4143 no . .
C(15) H(13C) 2.7991 no . .
C(16) H(3) 2.7533 no . .
C(16) H(18) 3.2316 no . .
C(16) H(20) 3.2387 no . .
C(16) H(22C) 3.2440 no . .
C(16) H(23) 2.6392 no . .
C(16) H(26) 2.6016 no . .
C(16) H(27B) 3.3275 no . .
C(16) H(41) 3.4124 no . .
C(17) H(3) 3.4600 no . .
C(17) H(19) 3.2733 no . .
C(17) H(25A) 3.3656 no . .
C(17) H(25B) 2.8556 no . .
C(17) H(25C) 2.6578 no . .
C(17) H(27A) 3.4363 no . .
C(17) H(27B) 2.7518 no . .
C(17) H(27C) 2.6790 no . .
C(18) H(20) 3.2195 no . .
C(18) H(25B) 2.8553 no . .
C(18) H(25C) 3.0310 no . .
C(18) H(26) 3.2431 no . .
C(18) H(27B) 3.5796 no . .
C(18) H(27C) 3.0181 no . .
C(19) H(40) 3.5418 no . .
C(19) H(41) 3.4975 no . .
C(20) H(18) 3.2491 no . .
C(20) H(22B) 3.0788 no . .
C(20) H(23) 3.2500 no . .
C(20) H(24B) 3.0661 no . .
C(20) H(24C) 2.8401 no . .
C(20) H(40) 3.2419 no . .
C(20) H(41) 3.2425 no . .
C(21) H(3) 3.4345 no . .
C(21) H(19) 3.2830 no . .
C(21) H(22A) 3.3191 no . .
C(21) H(22B) 2.7490 no . .
C(21) H(22C) 2.7578 no . .
C(21) H(24A) 3.3645 no . .
C(21) H(24B) 2.6979 no . .
C(21) H(24C) 2.8402 no . .
C(21) H(41) 3.2063 no . .
C(22) H(3) 3.4165 no . .
C(22) H(20) 3.3312 no . .
C(22) H(24A) 2.6529 no . .
C(22) H(24B) 3.2923 no . .
C(22) H(24C) 2.7054 no . .
C(23) H(20) 2.7031 no . .
C(24) H(20) 2.7059 no . .
C(24) H(22A) 2.6373 no . .
C(24) H(22B) 2.6764 no . .
C(24) H(22C) 3.4214 no . .
C(25) H(18) 2.7134 no . .
C(25) H(27A) 2.7194 no . .
C(25) H(27B) 3.3703 no . .
C(25) H(27C) 2.7253 no . .
C(25) H(28A) 3.1868 no . .
C(25) H(28B) 3.1469 no . .
C(26) H(14) 3.5167 no . .
C(26) H(18) 2.6403 no . .
C(26) H(28B) 3.1564 no . .
C(27) H(3) 3.5851 no . .
C(27) H(18) 3.1824 no . .
C(27) H(25A) 2.7489 no . .
C(27) H(25B) 2.7369 no . .
C(27) H(25C) 3.3257 no . .
C(28) H(13B) 2.9833 no . .
C(28) H(14) 3.4580 no . .
C(28) H(25A) 3.5494 no . .
C(28) H(25C) 3.0127 no . .
C(28) H(26) 3.0803 no . .
C(29) H(28A) 2.6876 no . .
C(29) H(31) 3.2905 no . .
C(29) H(33) 3.2202 no . .
C(29) H(37) 3.4003 no . .
C(29) H(49) 2.7736 no . .
C(30) H(28A) 3.0945 no . .
C(30) H(34) 3.1899 no . .
C(31) H(33) 3.1881 no . .
C(31) H(35B) 2.8254 no . .
C(31) H(35C) 2.7822 no . .
C(32) H(30) 3.2210 no . .
C(32) H(34) 3.2393 no . .
C(32) H(35A) 3.1752 no . .
C(32) H(35B) 2.7113 no . .
C(32) H(35C) 2.6437 no . .
C(33) H(31) 3.2865 no . .
C(34) H(28A) 3.1045 no . .
C(34) H(30) 3.2552 no . .
C(34) H(49) 2.7099 no . .
C(35) H(31) 2.5489 no . .
C(36) H(30) 2.6903 no . .
C(36) H(38) 3.1817 no . .
C(36) H(40) 3.1574 no . .
C(36) H(49) 3.5966 no . .
C(37) H(30) 3.3122 no . .
C(37) H(40) 3.5881 no . .
C(37) H(41) 3.1350 no . .
C(37) H(49) 3.3100 no . .
C(38) H(40) 3.1292 no . .
C(38) H(41) 3.5774 no . .
C(38) H(52A) 3.103(6) no . .
C(38) H(52B) 3.362(6) no . .
C(39) H(37) 3.2421 no . .
C(39) H(41) 3.1194 no . .
C(39) H(52A) 3.501(7) no . .
C(39) H(52B) 3.123(6) no . .
C(40) H(24B) 3.4095 no . .
C(40) H(38) 3.1789 no . .
C(41) H(24B) 3.3857 no . .
C(41) H(30) 3.0129 no . .
C(41) H(37) 3.2725 no . .
C(42) H(40) 2.3514 no . .
C(42) H(40) 3.2878 no . 3_666
C(42) H(52B) 3.33(2) no . .
C(43) H(20) 3.5870 no . 3_666
C(43) H(38) 2.5046 no . .
C(44) H(34) 2.8469 no . .
C(44) H(37) 2.8657 no . .
C(44) H(46) 3.2821 no . .
C(44) H(48) 3.2115 no . .
C(45) H(10C) 3.3320 no . .
C(45) H(49) 3.2476 no . .
C(46) H(48) 3.2073 no . .
C(47) H(45) 3.2374 no . .
C(47) H(49) 3.2501 no . .
C(47) H(50A) 3.1057 no . .
C(47) H(50B) 2.6405 no . .
C(47) H(50C) 2.6342 no . .
C(48) H(46) 3.2693 no . .
C(48) H(50B) 2.8022 no . .
C(48) H(50C) 2.7759 no . .
C(49) H(34) 2.7736 no . .
C(49) H(37) 2.7618 no . .
C(49) H(45) 3.2397 no . .
C(50) H(48) 2.5503 no . .
C(52) H(19) 3.3921 no . 3_666
C(52) H(38) 3.0283 no . .
H(2) H(3) 2.5582 no . .
H(2) H(12B) 2.9206 no . .
H(2) H(14) 2.9286 no . .
H(2) H(15C) 2.6672 no . .
H(3) H(22C) 2.5539 no . .
H(3) H(23) 3.4569 no . .
H(3) H(26) 3.4367 no . .
H(3) H(27B) 2.8213 no . .
H(6) H(7) 2.2073 no . .
H(6) H(13B) 3.1214 no . .
H(6) H(13C) 2.4043 no . .
H(6) H(14) 3.5741 no . .
H(6) H(15B) 2.6654 no . .
H(6) H(15C) 3.5610 no . .
H(7) H(8) 2.2850 no . .
H(8) H(10A) 3.5347 no . .
H(8) H(10B) 2.2318 no . .
H(8) H(10C) 2.6888 no . .
H(8) H(11) 3.5410 no . .
H(8) H(12C) 3.0595 no . .
H(10A) H(11) 2.3311 no . .
H(10A) H(12A) 2.5210 no . .
H(10A) H(12B) 3.5522 no . .
H(10A) H(12C) 2.9008 no . .
H(10B) H(11) 2.8840 no . .
H(10B) H(12A) 2.9470 no . .
H(10B) H(12C) 2.4677 no . .
H(10C) H(11) 2.4084 no . .
H(10C) H(12A) 3.5915 no . .
H(10C) H(12C) 3.5287 no . .
H(10C) H(45) 2.6197 no . .
H(10C) H(46) 3.3043 no . .
H(11) H(12A) 2.3297 no . .
H(11) H(12B) 2.3751 no . .
H(11) H(12C) 2.8483 no . .
H(11) H(23) 3.4666 no . .
H(13A) H(14) 2.3455 no . .
H(13A) H(15A) 2.5433 no . .
H(13A) H(15B) 3.0606 no . .
H(13A) H(28B) 3.4277 no . .
H(13B) H(14) 2.4212 no . .
H(13B) H(28A) 3.3472 no . .
H(13B) H(28B) 2.3684 no . .
H(13C) H(14) 2.9182 no . .
H(13C) H(15A) 3.0592 no . .
H(13C) H(15B) 2.6492 no . .
H(14) H(15A) 2.4539 no . .
H(14) H(15B) 2.8890 no . .
H(14) H(15C) 2.4516 no . .
H(14) H(26) 2.6494 no . .
H(14) H(27A) 3.5905 no . .
H(14) H(28B) 2.6157 no . .
H(18) H(19) 2.3366 no . .
H(18) H(25B) 2.2957 no . .
H(18) H(25C) 2.8672 no . .
H(18) H(26) 3.5001 no . .
H(18) H(27C) 2.8066 no . .
H(19) H(20) 2.2825 no . .
H(19) H(40) 3.5887 no . .
H(19) H(52B) 3.1418 no . 3_666
H(20) H(22B) 2.9187 no . .
H(20) H(23) 3.5399 no . .
H(20) H(24B) 2.8848 no . .
H(20) H(24C) 2.3067 no . .
H(20) H(40) 3.0530 no . .
H(22A) H(23) 2.2761 no . .
H(22A) H(24A) 2.4160 no . .
H(22A) H(24B) 3.4703 no . .
H(22A) H(24C) 2.8738 no . .
H(22B) H(23) 2.7843 no . .
H(22B) H(24A) 2.9245 no . .
H(22B) H(24B) 3.5079 no . .
H(22B) H(24C) 2.5068 no . .
H(22C) H(23) 2.3783 no . .
H(22C) H(24A) 3.5933 no . .
H(23) H(24A) 2.2619 no . .
H(23) H(24B) 2.3068 no . .
H(23) H(24C) 2.7888 no . .
H(24B) H(40) 3.1889 no . .
H(24B) H(41) 3.1496 no . .
H(25A) H(26) 2.2742 no . .
H(25A) H(27A) 2.5789 no . .
H(25A) H(27C) 3.0820 no . .
H(25A) H(28A) 3.2228 no . .
H(25A) H(28B) 3.0301 no . .
H(25B) H(26) 2.8289 no . .
H(25B) H(27A) 2.9897 no . .
H(25B) H(27C) 2.6456 no . .
H(25C) H(26) 2.3649 no . .
H(25C) H(27C) 3.5584 no . .
H(25C) H(28A) 2.5052 no . .
H(25C) H(28B) 2.8548 no . .
H(26) H(27A) 2.3875 no . .
H(26) H(27B) 2.3678 no . .
H(26) H(27C) 2.7063 no . .
H(26) H(28A) 3.2821 no . .
H(26) H(28B) 2.4473 no . .
H(28A) H(30) 3.4390 no . .
H(28A) H(34) 3.3485 no . .
H(30) H(31) 2.2728 no . .
H(30) H(41) 3.1273 no . .
H(31) H(35A) 3.4791 no . .
H(31) H(35B) 2.3820 no . .
H(31) H(35C) 2.3472 no . .
H(33) H(34) 2.3258 no . .
H(34) H(49) 2.5290 no . .
H(37) H(38) 2.2309 no . .
H(37) H(49) 2.5479 no . .
H(38) H(52A) 2.3732 no . .
H(38) H(52B) 2.9631 no . .
H(40) H(41) 2.1835 no . .
H(45) H(46) 2.3054 no . .
H(48) H(49) 2.2779 no . .
H(48) H(50A) 3.4956 no . .
H(48) H(50B) 2.4039 no . .
H(48) H(50C) 2.3700 no . .
Cl(1) H(3) 2.8201 no . 2_645
Cl(1) H(35A) 3.4626 no . 2_545
Cl(1) H(35B) 3.2208 no . 2_545
Cl(2) H(7) 3.1337 no . 3_665
Cl(2) H(8) 2.8346 no . 3_665
Cl(2) H(52A) 2.9409(14) no . 2_555
Cl(3) H(12C) 3.4283 no . 3_665
Cl(3) H(19) 3.1513 no . 2_545
Cl(3) H(33) 3.5414 no . .
Cl(3) H(34) 3.2116 no . .
Cl(4) H(2) 3.1887 no . 3_665
Cl(4) H(12B) 3.5558 no . 3_665
Cl(4) H(15C) 3.1287 no . 3_665
Cl(4) H(50B) 3.4294 no . .
Cl(4) H(52B) 3.485(3) no . 4_454
Cl(5) H(10B) 3.1960 no . 4_455
Cl(5) H(13B) 2.8291 no . 2_545
Cl(5) H(13C) 3.0930 no . 2_545
Cl(5) H(50A) 3.4370 no . 2_555
Cl(6) H(8) 3.5303 no . 4_455
Cl(6) H(10B) 3.1006 no . 4_455
Cl(6) H(12C) 2.6228 no . 4_455
Cl(6) H(33) 3.1178 no . 2_545
Cl(6) H(34) 3.5859 no . 2_545
O(1) H(12A) 3.2466 no . 1_455
O(1) H(12B) 2.8056 no . 1_455
O(1) H(27C) 3.0331 no . 2_545
O(1) H(38) 3.4415 no . 2_555
O(2) H(50A) 3.2406 no . 2_555
O(2) H(50B) 3.2492 no . 2_555
O(2) H(50C) 3.4115 no . 2_555
O(3) H(13A) 3.0062 no . 1_545
O(3) H(15B) 2.7570 no . 3_665
O(3) H(51B) 3.1806 no . .
C(2) H(24A) 3.0658 no . 2_655
C(2) H(24B) 3.5892 no . 2_655
C(2) H(35A) 2.8009 no . 1_655
C(3) H(24A) 3.1992 no . 2_655
C(3) H(35A) 2.8958 no . 1_655
C(4) H(51A) 2.8940 no . 3_665
C(5) H(51A) 3.1815 no . 3_665
C(6) H(46) 3.3909 no . 3_665
C(6) H(51A) 3.2605 no . 3_665
C(6) H(51B) 3.2769 no . 3_665
C(7) H(8) 3.3964 no . 3_665
C(7) H(10C) 3.5990 no . 3_665
C(7) H(51A) 3.1264 no . 3_665
C(7) H(51B) 3.3375 no . 3_665
C(8) H(7) 3.3175 no . 3_665
C(8) H(51A) 2.8477 no . 3_665
C(9) H(51A) 2.7178 no . 3_665
C(10) H(22B) 3.1063 no . 2_645
C(10) H(22C) 3.2122 no . 2_645
C(11) H(51A) 3.3899 no . 3_665
C(12) H(27C) 3.4837 no . 2_645
C(12) H(51A) 2.8770 no . 3_665
C(13) H(15A) 3.4590 no . 3_675
C(13) H(50A) 3.1895 no . 1_565
C(15) H(13A) 3.5683 no . 3_675
C(15) H(24A) 3.1882 no . 2_655
C(15) H(24C) 3.1815 no . 2_655
C(16) H(10A) 3.4376 no . 2_655
C(17) H(12A) 3.5479 no . 2_655
C(18) H(12A) 3.2258 no . 2_655
C(18) H(49) 3.4706 no . 2_555
C(19) H(10A) 3.5583 no . 2_655
C(19) H(12A) 3.5960 no . 2_655
C(20) H(10A) 3.2205 no . 2_655
C(21) H(10A) 3.1656 no . 2_655
C(22) H(10A) 3.0189 no . 2_655
C(22) H(10C) 3.4364 no . 2_655
C(22) H(27A) 3.3584 no . 2_645
C(22) H(27B) 3.5602 no . 2_645
C(22) H(35C) 3.3806 no . 1_655
C(22) H(46) 2.8849 no . 2_655
C(23) H(27B) 3.5108 no . 2_645
C(24) H(2) 3.3133 no . 2_645
C(24) H(15A) 3.3085 no . 2_645
C(24) H(15C) 3.2113 no . 2_645
C(24) H(27B) 3.5980 no . 2_645
C(25) H(37) 2.9277 no . 2_555
C(25) H(49) 3.2172 no . 2_555
C(27) H(12A) 3.2354 no . 2_655
C(27) H(22A) 3.1459 no . 2_655
C(27) H(24A) 3.5234 no . 2_655
C(27) H(35C) 3.1597 no . 2_555
C(29) H(25B) 2.9826 no . 2_545
C(30) H(25A) 3.5705 no . 2_545
C(30) H(25B) 2.9372 no . 2_545
C(30) H(37) 3.4500 no . 2_555
C(30) H(48) 3.5111 no . 2_555
C(30) H(50C) 3.4817 no . 2_555
C(31) H(25B) 3.1552 no . 2_545
C(31) H(27C) 3.3429 no . 2_545
C(31) H(37) 2.9478 no . 2_555
C(31) H(38) 3.4028 no . 2_555
C(32) H(25B) 3.3825 no . 2_545
C(32) H(27C) 3.0503 no . 2_545
C(32) H(37) 3.5151 no . 2_555
C(32) H(38) 3.1287 no . 2_555
C(32) H(52A) 3.595(5) no . 2_555
C(33) H(18) 3.2441 no . 2_545
C(33) H(25B) 3.4104 no . 2_545
C(33) H(38) 3.4010 no . 2_555
C(33) H(52A) 2.893(5) no . 2_555
C(34) H(18) 3.4496 no . 2_545
C(34) H(25B) 3.2364 no . 2_545
C(34) H(52A) 3.160(5) no . 2_555
C(35) H(2) 3.5102 no . 1_455
C(35) H(3) 3.5522 no . 1_455
C(35) H(12B) 3.2912 no . 1_455
C(35) H(22C) 3.5187 no . 1_455
C(35) H(27C) 3.2789 no . 2_545
C(36) H(35B) 2.9244 no . 2_545
C(36) H(50C) 3.4129 no . 2_555
C(37) H(25A) 3.2166 no . 2_545
C(37) H(25B) 3.3259 no . 2_545
C(37) H(25C) 3.2079 no . 2_545
C(37) H(31) 3.2588 no . 2_545
C(37) H(35B) 2.7789 no . 2_545
C(37) H(50C) 3.2002 no . 2_555
C(38) H(25A) 3.4334 no . 2_545
C(38) H(35B) 3.2094 no . 2_545
C(38) H(50A) 3.3925 no . 2_555
C(38) H(50C) 2.8911 no . 2_555
C(39) H(50A) 3.2518 no . 2_555
C(39) H(50B) 3.2398 no . 2_555
C(39) H(50C) 2.8008 no . 2_555
C(40) H(50B) 3.3879 no . 2_555
C(40) H(50C) 3.0180 no . 2_555
C(41) H(35B) 3.4415 no . 2_545
C(41) H(50C) 3.3200 no . 2_555
C(42) H(50B) 3.3567 no . 2_555
C(43) H(50A) 3.5144 no . 2_555
C(44) H(31) 3.1950 no . 2_545
C(44) H(35B) 3.3488 no . 2_545
C(45) H(6) 3.5732 no . 3_665
C(45) H(7) 3.1439 no . 3_665
C(45) H(31) 3.2372 no . 2_545
C(45) H(35B) 3.1936 no . 2_545
C(45) H(35C) 3.4494 no . 2_545
C(46) H(6) 2.9497 no . 3_665
C(46) H(7) 3.3907 no . 3_665
C(46) H(22A) 3.2687 no . 2_645
C(46) H(22B) 3.5926 no . 2_645
C(46) H(22C) 3.5110 no . 2_645
C(46) H(31) 3.1243 no . 2_545
C(46) H(35C) 3.4970 no . 2_545
C(46) H(51B) 3.5930 no . .
C(47) H(6) 3.5571 no . 3_665
C(47) H(15B) 3.5738 no . 3_665
C(47) H(30) 3.5270 no . 2_545
C(47) H(31) 2.9918 no . 2_545
C(47) H(51B) 2.8889 no . .
C(48) H(30) 2.9682 no . 2_545
C(48) H(31) 2.9371 no . 2_545
C(48) H(51B) 2.8538 no . .
C(49) H(25B) 3.4603 no . 2_545
C(49) H(30) 3.5181 no . 2_545
C(49) H(31) 3.0260 no . 2_545
C(49) H(51B) 3.5271 no . .
C(50) H(13A) 3.1811 no . 1_545
C(50) H(15B) 3.3638 no . 3_665
C(50) H(25A) 3.4426 no . 1_545
C(50) H(51B) 3.4375 no . .
C(51) H(12B) 3.4190 no . 3_665
C(51) H(12C) 3.4768 no . 3_665
C(51) H(15C) 3.4847 no . 3_665
C(51) H(50B) 3.4832 no . .
C(52) H(33) 3.2032 no . 2_545
H(2) Cl(4) 3.1887 no . 3_665
H(2) C(24) 3.3133 no . 2_655
H(2) C(35) 3.5102 no . 1_655
H(2) H(24A) 2.7939 no . 2_655
H(2) H(24B) 3.0797 no . 2_655
H(2) H(24C) 3.5451 no . 2_655
H(2) H(35A) 2.5954 no . 1_655
H(2) H(51A) 3.1965 no . 3_665
H(3) Cl(1) 2.8201 no . 2_655
H(3) C(35) 3.5522 no . 1_655
H(3) H(10A) 3.2734 no . 2_655
H(3) H(24A) 3.0646 no . 2_655
H(3) H(24B) 3.3594 no . 2_655
H(3) H(35A) 2.7783 no . 1_655
H(3) H(35C) 3.5517 no . 1_655
H(6) C(45) 3.5732 no . 3_665
H(6) C(46) 2.9497 no . 3_665
H(6) C(47) 3.5571 no . 3_665
H(6) H(10C) 3.2478 no . 3_665
H(6) H(46) 2.5914 no . 3_665
H(6) H(51B) 3.5357 no . 3_665
H(7) Cl(2) 3.1337 no . 3_665
H(7) C(8) 3.3175 no . 3_665
H(7) C(45) 3.1439 no . 3_665
H(7) C(46) 3.3907 no . 3_665
H(7) H(8) 3.2359 no . 3_665
H(7) H(10C) 3.0195 no . 3_665
H(7) H(45) 3.1628 no . 3_665
H(7) H(46) 3.5307 no . 3_665
H(8) Cl(2) 2.8346 no . 3_665
H(8) Cl(6) 3.5303 no . 4_554
H(8) C(7) 3.3964 no . 3_665
H(8) H(7) 3.2359 no . 3_665
H(8) H(51A) 3.3371 no . 3_665
H(10A) C(16) 3.4376 no . 2_645
H(10A) C(19) 3.5583 no . 2_645
H(10A) C(20) 3.2205 no . 2_645
H(10A) C(21) 3.1656 no . 2_645
H(10A) C(22) 3.0189 no . 2_645
H(10A) H(3) 3.2734 no . 2_645
H(10A) H(20) 3.5460 no . 2_645
H(10A) H(22B) 2.7133 no . 2_645
H(10A) H(22C) 2.5925 no . 2_645
H(10B) Cl(5) 3.1960 no . 4_554
H(10B) Cl(6) 3.1006 no . 4_554
H(10B) H(22B) 3.1021 no . 2_645
H(10C) C(7) 3.5990 no . 3_665
H(10C) C(22) 3.4364 no . 2_645
H(10C) H(6) 3.2478 no . 3_665
H(10C) H(7) 3.0195 no . 3_665
H(10C) H(22B) 2.9453 no . 2_645
H(10C) H(22C) 3.0255 no . 2_645
H(12A) O(1) 3.2466 no . 1_655
H(12A) C(17) 3.5479 no . 2_645
H(12A) C(18) 3.2258 no . 2_645
H(12A) C(19) 3.5960 no . 2_645
H(12A) C(27) 3.2354 no . 2_645
H(12A) H(18) 3.2345 no . 2_645
H(12A) H(27B) 3.0330 no . 2_645
H(12A) H(27C) 2.6294 no . 2_645
H(12B) Cl(4) 3.5558 no . 3_665
H(12B) O(1) 2.8056 no . 1_655
H(12B) C(35) 3.2912 no . 1_655
H(12B) C(51) 3.4190 no . 3_665
H(12B) H(27C) 3.4757 no . 2_645
H(12B) H(35A) 2.9129 no . 1_655
H(12B) H(35C) 3.5448 no . 1_655
H(12B) H(51A) 2.5619 no . 3_665
H(12C) Cl(3) 3.4283 no . 3_665
H(12C) Cl(6) 2.6228 no . 4_554
H(12C) C(51) 3.4768 no . 3_665
H(12C) H(51A) 2.7095 no . 3_665
H(13A) O(3) 3.0062 no . 1_565
H(13A) C(15) 3.5683 no . 3_675
H(13A) C(50) 3.1811 no . 1_565
H(13A) H(15A) 3.1617 no . 3_675
H(13A) H(15B) 3.0042 no . 3_675
H(13A) H(50A) 2.4422 no . 1_565
H(13B) Cl(5) 2.8291 no . 2_555
H(13B) H(50A) 3.0557 no . 1_565
H(13B) H(52A) 3.5561 no . 2_555
H(13C) Cl(5) 3.0930 no . 2_555
H(13C) H(15A) 2.8053 no . 3_675
H(13C) H(15B) 3.4841 no . 3_675
H(13C) H(22B) 3.5031 no . 4_464
H(13C) H(50A) 3.4392 no . 1_565
H(14) H(24A) 3.2312 no . 2_655
H(15A) C(13) 3.4590 no . 3_675
H(15A) C(24) 3.3085 no . 2_655
H(15A) H(13A) 3.1617 no . 3_675
H(15A) H(13C) 2.8053 no . 3_675
H(15A) H(22A) 3.5010 no . 2_655
H(15A) H(22B) 3.5082 no . 2_655
H(15A) H(24A) 2.8718 no . 2_655
H(15A) H(24C) 2.7648 no . 2_655
H(15B) O(3) 2.7570 no . 3_665
H(15B) C(47) 3.5738 no . 3_665
H(15B) C(50) 3.3638 no . 3_665
H(15B) H(13A) 3.0042 no . 3_675
H(15B) H(13C) 3.4841 no . 3_675
H(15B) H(46) 3.5720 no . 3_665
H(15B) H(50A) 3.1945 no . 3_665
H(15B) H(50B) 3.3524 no . 3_665
H(15B) H(51B) 3.3386 no . 3_665
H(15C) Cl(4) 3.1287 no . 3_665
H(15C) C(24) 3.2113 no . 2_655
H(15C) C(51) 3.4847 no . 3_665
H(15C) H(24A) 2.8423 no . 2_655
H(15C) H(24B) 3.5049 no . 2_655
H(15C) H(24C) 2.7252 no . 2_655
H(15C) H(51A) 3.3973 no . 3_665
H(15C) H(51B) 3.2804 no . 3_665
H(18) C(33) 3.2441 no . 2_555
H(18) C(34) 3.4496 no . 2_555
H(18) H(12A) 3.2345 no . 2_655
H(18) H(33) 3.2634 no . 2_555
H(18) H(49) 2.8058 no . 2_555
H(19) Cl(3) 3.1513 no . 2_555
H(20) H(10A) 3.5460 no . 2_655
H(22A) C(27) 3.1459 no . 2_645
H(22A) C(46) 3.2687 no . 2_655
H(22A) H(15A) 3.5010 no . 2_645
H(22A) H(27A) 2.4616 no . 2_645
H(22A) H(27B) 2.8958 no . 2_645
H(22A) H(27C) 3.4763 no . 2_645
H(22A) H(35C) 3.0285 no . 1_655
H(22A) H(46) 2.5047 no . 2_655
H(22B) C(10) 3.1063 no . 2_655
H(22B) C(46) 3.5926 no . 2_655
H(22B) H(10A) 2.7133 no . 2_655
H(22B) H(10B) 3.1021 no . 2_655
H(22B) H(10C) 2.9453 no . 2_655
H(22B) H(13C) 3.5031 no . 4_565
H(22B) H(15A) 3.5082 no . 2_645
H(22B) H(46) 2.7038 no . 2_655
H(22C) C(10) 3.2122 no . 2_655
H(22C) C(35) 3.5187 no . 1_655
H(22C) C(46) 3.5110 no . 2_655
H(22C) H(10A) 2.5925 no . 2_655
H(22C) H(10C) 3.0255 no . 2_655
H(22C) H(35A) 3.3058 no . 1_655
H(22C) H(35C) 2.8684 no . 1_655
H(22C) H(45) 3.0835 no . 2_655
H(22C) H(46) 2.9144 no . 2_655
H(23) H(27B) 2.9698 no . 2_645
H(24A) C(2) 3.0658 no . 2_645
H(24A) C(3) 3.1992 no . 2_645
H(24A) C(15) 3.1882 no . 2_645
H(24A) C(27) 3.5234 no . 2_645
H(24A) H(2) 2.7939 no . 2_645
H(24A) H(3) 3.0646 no . 2_645
H(24A) H(14) 3.2312 no . 2_645
H(24A) H(15A) 2.8718 no . 2_645
H(24A) H(15C) 2.8423 no . 2_645
H(24A) H(27A) 3.3317 no . 2_645
H(24A) H(27B) 2.8577 no . 2_645
H(24B) C(2) 3.5892 no . 2_645
H(24B) H(2) 3.0797 no . 2_645
H(24B) H(3) 3.3594 no . 2_645
H(24B) H(15C) 3.5049 no . 2_645
H(24C) C(15) 3.1815 no . 2_645
H(24C) H(2) 3.5451 no . 2_645
H(24C) H(15A) 2.7648 no . 2_645
H(24C) H(15C) 2.7252 no . 2_645
H(25A) C(30) 3.5705 no . 2_555
H(25A) C(37) 3.2166 no . 2_555
H(25A) C(38) 3.4334 no . 2_555
H(25A) C(50) 3.4426 no . 1_565
H(25A) H(30) 3.5162 no . 2_555
H(25A) H(37) 2.9135 no . 2_555
H(25A) H(38) 3.3390 no . 2_555
H(25A) H(50A) 3.3039 no . 1_565
H(25A) H(50C) 2.8953 no . 1_565
H(25B) C(29) 2.9826 no . 2_555
H(25B) C(30) 2.9372 no . 2_555
H(25B) C(31) 3.1552 no . 2_555
H(25B) C(32) 3.3825 no . 2_555
H(25B) C(33) 3.4104 no . 2_555
H(25B) C(34) 3.2364 no . 2_555
H(25B) C(37) 3.3259 no . 2_555
H(25B) C(49) 3.4603 no . 2_555
H(25B) H(30) 3.2829 no . 2_555
H(25B) H(37) 2.7772 no . 2_555
H(25B) H(49) 2.5649 no . 2_555
H(25C) C(37) 3.2079 no . 2_555
H(25C) H(37) 2.4910 no . 2_555
H(25C) H(38) 3.4216 no . 2_555
H(25C) H(49) 2.9033 no . 2_555
H(27A) C(22) 3.3584 no . 2_655
H(27A) H(22A) 2.4616 no . 2_655
H(27A) H(24A) 3.3317 no . 2_655
H(27A) H(31) 3.3482 no . 2_555
H(27A) H(35C) 2.8562 no . 2_555
H(27A) H(46) 3.4932 no . 1_565
H(27B) C(22) 3.5602 no . 2_655
H(27B) C(23) 3.5108 no . 2_655
H(27B) C(24) 3.5980 no . 2_655
H(27B) H(12A) 3.0330 no . 2_655
H(27B) H(22A) 2.8958 no . 2_655
H(27B) H(23) 2.9698 no . 2_655
H(27B) H(24A) 2.8577 no . 2_655
H(27B) H(35C) 3.3757 no . 2_555
H(27C) O(1) 3.0331 no . 2_555
H(27C) C(12) 3.4837 no . 2_655
H(27C) C(31) 3.3429 no . 2_555
H(27C) C(32) 3.0503 no . 2_555
H(27C) C(35) 3.2789 no . 2_555
H(27C) H(12A) 2.6294 no . 2_655
H(27C) H(12B) 3.4757 no . 2_655
H(27C) H(22A) 3.4763 no . 2_655
H(27C) H(31) 3.4415 no . 2_555
H(27C) H(35C) 2.6875 no . 2_555
H(28A) H(38) 3.1093 no . 2_555
H(28A) H(52A) 3.2992 no . 2_555
H(30) C(47) 3.5270 no . 2_555
H(30) C(48) 2.9682 no . 2_555
H(30) C(49) 3.5181 no . 2_555
H(30) H(25A) 3.5162 no . 2_545
H(30) H(25B) 3.2829 no . 2_545
H(30) H(48) 2.6870 no . 2_555
H(30) H(50C) 2.7216 no . 2_555
H(31) C(37) 3.2588 no . 2_555
H(31) C(44) 3.1950 no . 2_555
H(31) C(45) 3.2372 no . 2_555
H(31) C(46) 3.1243 no . 2_555
H(31) C(47) 2.9918 no . 2_555
H(31) C(48) 2.9371 no . 2_555
H(31) C(49) 3.0260 no . 2_555
H(31) H(27A) 3.3482 no . 2_545
H(31) H(27C) 3.4415 no . 2_545
H(31) H(37) 2.7705 no . 2_555
H(31) H(48) 3.3236 no . 2_555
H(31) H(49) 3.5135 no . 2_555
H(33) Cl(3) 3.5414 no . .
H(33) Cl(6) 3.1178 no . 2_555
H(33) C(52) 3.2032 no . 2_555
H(33) H(18) 3.2634 no . 2_545
H(33) H(52A) 2.7782 no . 2_555
H(33) H(52B) 3.2309 no . 2_555
H(34) Cl(3) 3.2116 no . .
H(34) Cl(6) 3.5859 no . 2_555
H(34) H(52A) 3.2251 no . 2_555
H(35A) Cl(1) 3.4626 no . 2_555
H(35A) C(2) 2.8009 no . 1_455
H(35A) C(3) 2.8958 no . 1_455
H(35A) H(2) 2.5954 no . 1_455
H(35A) H(3) 2.7783 no . 1_455
H(35A) H(12B) 2.9129 no . 1_455
H(35A) H(22C) 3.3058 no . 1_455
H(35B) Cl(1) 3.2208 no . 2_555
H(35B) C(36) 2.9244 no . 2_555
H(35B) C(37) 2.7789 no . 2_555
H(35B) C(38) 3.2094 no . 2_555
H(35B) C(41) 3.4415 no . 2_555
H(35B) C(44) 3.3488 no . 2_555
H(35B) C(45) 3.1936 no . 2_555
H(35B) H(37) 3.0333 no . 2_555
H(35B) H(38) 3.5771 no . 2_555
H(35B) H(45) 3.1186 no . 2_555
H(35C) C(22) 3.3806 no . 1_455
H(35C) C(27) 3.1597 no . 2_545
H(35C) C(45) 3.4494 no . 2_555
H(35C) C(46) 3.4970 no . 2_555
H(35C) H(3) 3.5517 no . 1_455
H(35C) H(12B) 3.5448 no . 1_455
H(35C) H(22A) 3.0285 no . 1_455
H(35C) H(22C) 2.8684 no . 1_455
H(35C) H(27A) 2.8562 no . 2_545
H(35C) H(27B) 3.3757 no . 2_545
H(35C) H(27C) 2.6875 no . 2_545
H(35C) H(45) 3.3966 no . 2_555
H(35C) H(46) 3.5352 no . 2_555
H(37) C(25) 2.9277 no . 2_545
H(37) C(30) 3.4500 no . 2_545
H(37) C(31) 2.9478 no . 2_545
H(37) C(32) 3.5151 no . 2_545
H(37) H(25A) 2.9135 no . 2_545
H(37) H(25B) 2.7772 no . 2_545
H(37) H(25C) 2.4910 no . 2_545
H(37) H(31) 2.7705 no . 2_545
H(37) H(35B) 3.0333 no . 2_545
H(38) O(1) 3.4415 no . 2_545
H(38) C(31) 3.4028 no . 2_545
H(38) C(32) 3.1287 no . 2_545
H(38) C(33) 3.4010 no . 2_545
H(38) H(25A) 3.3390 no . 2_545
H(38) H(25C) 3.4216 no . 2_545
H(38) H(28A) 3.1093 no . 2_545
H(38) H(35B) 3.5771 no . 2_545
H(38) H(50A) 3.4307 no . 2_555
H(38) H(50C) 3.2820 no . 2_555
H(40) H(50B) 3.4157 no . 2_555
H(40) H(50C) 3.4189 no . 2_555
H(45) H(7) 3.1628 no . 3_665
H(45) H(22C) 3.0835 no . 2_645
H(45) H(35B) 3.1186 no . 2_545
H(45) H(35C) 3.3966 no . 2_545
H(46) C(6) 3.3909 no . 3_665
H(46) C(22) 2.8849 no . 2_645
H(46) H(6) 2.5914 no . 3_665
H(46) H(7) 3.5307 no . 3_665
H(46) H(15B) 3.5720 no . 3_665
H(46) H(22A) 2.5047 no . 2_645
H(46) H(22B) 2.7038 no . 2_645
H(46) H(22C) 2.9144 no . 2_645
H(46) H(27A) 3.4932 no . 1_545
H(46) H(35C) 3.5352 no . 2_545
H(48) C(30) 3.5111 no . 2_545
H(48) H(30) 2.6870 no . 2_545
H(48) H(31) 3.3236 no . 2_545
H(48) H(51B) 2.9649 no . .
H(49) C(18) 3.4706 no . 2_545
H(49) C(25) 3.2172 no . 2_545
H(49) H(18) 2.8058 no . 2_545
H(49) H(25B) 2.5649 no . 2_545
H(49) H(25C) 2.9033 no . 2_545
H(49) H(31) 3.5135 no . 2_545
H(50A) Cl(5) 3.4370 no . 2_545
H(50A) O(2) 3.2406 no . 2_545
H(50A) C(13) 3.1895 no . 1_545
H(50A) C(38) 3.3925 no . 2_545
H(50A) C(39) 3.2518 no . 2_545
H(50A) C(43) 3.5144 no . 2_545
H(50A) H(13A) 2.4422 no . 1_545
H(50A) H(13B) 3.0557 no . 1_545
H(50A) H(13C) 3.4392 no . 1_545
H(50A) H(15B) 3.1945 no . 3_665
H(50A) H(25A) 3.3039 no . 1_545
H(50A) H(38) 3.4307 no . 2_545
H(50B) Cl(4) 3.4294 no . .
H(50B) O(2) 3.2492 no . 2_545
H(50B) C(39) 3.2398 no . 2_545
H(50B) C(40) 3.3879 no . 2_545
H(50B) C(42) 3.3567 no . 2_545
H(50B) C(51) 3.4832 no . .
H(50B) H(15B) 3.3524 no . 3_665
H(50B) H(40) 3.4157 no . 2_545
H(50B) H(51B) 2.8178 no . .
H(50C) O(2) 3.4115 no . 2_545
H(50C) C(30) 3.4817 no . 2_545
H(50C) C(36) 3.4129 no . 2_545
H(50C) C(37) 3.2002 no . 2_545
H(50C) C(38) 2.8911 no . 2_545
H(50C) C(39) 2.8008 no . 2_545
H(50C) C(40) 3.0180 no . 2_545
H(50C) C(41) 3.3200 no . 2_545
H(50C) H(25A) 2.8953 no . 1_545
H(50C) H(30) 2.7216 no . 2_545
H(50C) H(38) 3.2820 no . 2_545
H(50C) H(40) 3.4189 no . 2_545
H(51A) C(4) 2.8940 no . 3_665
H(51A) C(5) 3.1815 no . 3_665
H(51A) C(6) 3.2605 no . 3_665
H(51A) C(7) 3.1264 no . 3_665
H(51A) C(8) 2.8477 no . 3_665
H(51A) C(9) 2.7178 no . 3_665
H(51A) C(11) 3.3899 no . 3_665
H(51A) C(12) 2.8770 no . 3_665
H(51A) H(2) 3.1965 no . 3_665
H(51A) H(8) 3.3371 no . 3_665
H(51A) H(12B) 2.5619 no . 3_665
H(51A) H(12C) 2.7095 no . 3_665
H(51A) H(15C) 3.3973 no . 3_665
H(51B) O(3) 3.1806 no . .
H(51B) C(6) 3.2769 no . 3_665
H(51B) C(7) 3.3375 no . 3_665
H(51B) C(46) 3.5930 no . .
H(51B) C(47) 2.8889 no . .
H(51B) C(48) 2.8538 no . .
H(51B) C(49) 3.5271 no . .
H(51B) C(50) 3.4375 no . .
H(51B) H(6) 3.5357 no . 3_665
H(51B) H(15B) 3.3386 no . 3_665
H(51B) H(15C) 3.2804 no . 3_665
H(51B) H(48) 2.9649 no . .
H(51B) H(50B) 2.8178 no . .
H(52A) Cl(2) 2.9409(14) no . 2_545
H(52A) C(32) 3.595(5) no . 2_545
H(52A) C(33) 2.893(5) no . 2_545
H(52A) C(34) 3.160(5) no . 2_545
H(52A) H(13B) 3.5561 no . 2_545
H(52A) H(28A) 3.2992 no . 2_545
H(52A) H(33) 2.7782 no . 2_545
H(52A) H(34) 3.2251 no . 2_545
H(52B) Cl(4) 3.485(3) no . 4_555
H(52B) H(33) 3.2309 no . 2_545

#==============================================================================

#==============================================================================
# Additional structures and associated data_? identifiers
# should be added at this point if there is more than one 
# structure analysis in the CIF.

#==============================================================================
#     End of CIF
#==============================================================================
